[OPTIONS]
FLOW_UNITS            LPS
INFILTRATION          HORTON
FLOW_ROUTING          DYNWAVE
LINK_OFFSETS          ELEVATION
START_DATE            01/01/2026
START_TIME            00:00:00
REPORT_START_DATE     01/01/2026
REPORT_START_TIME     00:00:00
END_DATE              01/01/2026
END_TIME              08:00:00
REPORT_STEP           00:00:10
ROUTING_STEP          0.5
ALLOW_PONDING         NO
INERTIAL_DAMPING      PARTIAL
NORMAL_FLOW_LIMITED   BOTH
SURCHARGE_METHOD      SLOT
MIN_SURFAREA          0.02
LENGTHENING_STEP      0

[JUNCTIONS]
;;Name Invert MaxDepth InitDepth SurDepth Aponded
N0 31.990 3.865 0 100 0
N1 31.810 4.440 0 100 0
N3 34.633 3.455 0 100 0
N4 51.750 2.631 0 100 0
N8 40.970 2.421 0 100 0
N9 40.560 2.565 0 100 0
N10 49.783 3.630 0 100 0
N13 42.056 4.129 0 100 0
N15 35.612 2.477 0 100 0
N18 50.079 1.736 0 100 0
N20 36.038 3.057 0 100 0
N22 43.350 2.009 0 100 0
N25 39.641 4.792 0 100 0
N26 36.118 1.386 0 100 0
N28 39.540 2.767 0 100 0
N30 44.420 3.352 0 100 0
N31 42.829 4.434 0 100 0
N32 43.232 1.942 0 100 0
N33 42.500 1.788 0 100 0
N34 46.462 4.508 0 100 0
N35 46.240 4.711 0 100 0
N38 48.940 3.792 0 100 0
N43 39.997 4.601 0 100 0
N45 32.960 2.930 0 100 0
N46 33.447 3.783 0 100 0
N47 32.409 3.655 0 100 0
N49 47.716 2.982 0 100 0
N50 46.788 3.012 0 100 0
N51 48.181 3.858 0 100 0
N53 35.617 2.717 0 100 0
N59 40.800 3.534 0 100 0
N61 46.809 2.834 0 100 0
N62 46.356 2.772 0 100 0
N63 36.928 3.476 0 100 0
N64 36.262 3.229 0 100 0
N66 49.788 3.125 0 100 0
N67 36.860 1.747 0 100 0
N69 32.286 3.510 0 100 0
N71 38.230 2.741 0 100 0
N72 36.630 2.039 0 100 0
N73 53.832 2.726 0 100 0
N77 52.940 1.822 0 100 0
N79 42.457 3.217 0 100 0
N81 49.043 2.720 0 100 0
N82 48.834 2.598 0 100 0
N83 50.662 2.559 0 100 0
N85 51.797 4.362 0 100 0
N87 53.135 1.676 0 100 0
N89 33.012 3.534 0 100 0
N97 38.170 3.906 0 100 0
N98 40.825 3.662 0 100 0
N100 43.383 3.369 0 100 0
N101 40.980 3.418 0 100 0
N106 33.771 4.243 0 100 0
N108 43.482 3.103 0 100 0
N109 35.900 3.189 0 100 0
N112 42.000 3.784 0 100 0
N113 50.498 3.730 0 100 0
N116 32.509 2.567 0 100 0
N119 33.650 3.203 0 100 0
N122 44.604 4.529 0 100 0
N124 41.769 3.013 0 100 0
N125 50.251 2.755 0 100 0
N128 32.914 3.710 0 100 0
N131 43.465 3.215 0 100 0
N133 45.386 3.009 0 100 0
N134 45.220 3.013 0 100 0
N137 48.903 3.530 0 100 0
N139 38.402 3.431 0 100 0
N142 38.514 3.282 0 100 0
N143 51.130 2.486 0 100 0
N145 34.518 2.346 0 100 0
N147 33.907 3.064 0 100 0
N148 43.403 3.414 0 100 0
N149 37.423 2.919 0 100 0
N150 35.961 3.193 0 100 0
N151 35.569 3.377 0 100 0
N153 33.230 1.714 0 100 0
N154 32.740 2.046 0 100 0
N155 37.477 3.673 0 100 0
N157 32.614 3.532 0 100 0
N158 31.533 4.823 0 100 0
N159 51.175 2.390 0 100 0
N162 33.138 3.526 0 100 0
N163 33.033 3.833 0 100 0
N166 46.109 3.559 0 100 0
N168 44.367 3.169 0 100 0
N170 35.351 2.026 0 100 0
N171 35.162 2.248 0 100 0
N172 36.744 2.048 0 100 0
N176 30.458 3.852 0 100 0
N178 35.101 2.685 0 100 0
N180 39.407 3.253 0 100 0
N181 38.959 3.221 0 100 0
N183 34.621 3.833 0 100 0
N184 41.810 2.906 0 100 0
N186 37.452 3.294 0 100 0
N187 41.810 3.745 0 100 0
N188 41.420 2.678 0 100 0
N191 33.758 2.517 0 100 0
N192 35.182 1.801 0 100 0
N194 36.990 2.301 0 100 0
N197 37.690 4.250 0 100 0
N198 40.316 2.249 0 100 0
N202 40.364 2.781 0 100 0
N205 39.430 2.696 0 100 0
N206 33.164 3.924 0 100 0
N208 38.480 2.221 0 100 0
N209 37.706 2.828 0 100 0
N210 31.465 4.818 0 100 0
N211 31.278 4.898 0 100 0
N212 56.454 2.408 0 100 0
N216 44.130 3.280 0 100 0
N220 41.810 2.868 0 100 0
N221 45.700 2.879 0 100 0
N222 44.746 3.460 0 100 0
N224 46.638 2.621 0 100 0
N225 47.460 2.874 0 100 0
N228 33.972 1.801 0 100 0
N229 33.627 2.705 0 100 0
N230 46.701 3.161 0 100 0
N231 45.872 3.249 0 100 0
N232 49.786 2.275 0 100 0
N234 44.150 3.095 0 100 0
N238 35.732 2.313 0 100 0
N239 35.672 2.417 0 100 0
N240 47.494 3.723 0 100 0
N244 48.159 2.839 0 100 0
N246 32.344 3.727 0 100 0
N247 32.128 4.001 0 100 0
N248 47.256 2.891 0 100 0
N250 33.185 3.864 0 100 0
N251 51.598 2.961 0 100 0
N255 53.170 2.077 0 100 0
N258 40.794 2.975 0 100 0
N260 34.042 2.119 0 100 0
N261 53.140 2.790 0 100 0
N263 40.207 2.368 0 100 0
N265 38.960 2.172 0 100 0
N267 50.363 2.552 0 100 0
N268 43.736 3.719 0 100 0
N269 41.854 3.562 0 100 0
N270 34.731 4.175 0 100 0
N271 34.156 4.418 0 100 0
N272 40.750 1.728 0 100 0
N274 56.736 3.312 0 100 0
N275 55.974 3.920 0 100 0
N276 32.734 2.182 0 100 0
N277 43.510 1.697 0 100 0
N278 40.910 2.694 0 100 0
N279 49.869 3.019 0 100 0
N280 51.294 2.495 0 100 0
N281 50.042 3.235 0 100 0
N285 46.110 2.353 0 100 0
N287 35.052 1.920 0 100 0
N293 43.090 4.083 0 100 0
N294 42.423 4.183 0 100 0
N295 38.720 3.241 0 100 0
N296 46.820 3.244 0 100 0
N297 44.940 3.039 0 100 0
N298 47.644 1.432 0 100 0
N299 47.224 1.371 0 100 0
N300 34.382 4.052 0 100 0
N302 46.944 3.189 0 100 0
N303 42.630 2.894 0 100 0
N307 33.591 3.336 0 100 0
N311 51.676 1.636 0 100 0
N314 33.743 3.297 0 100 0
N317 51.324 2.315 0 100 0
N318 51.090 2.352 0 100 0
N319 37.832 3.398 0 100 0
N321 34.631 3.457 0 100 0
N322 34.146 4.053 0 100 0
N324 41.699 3.555 0 100 0
N325 39.480 2.057 0 100 0
N327 40.661 3.501 0 100 0
N328 38.445 4.222 0 100 0
N331 35.190 1.613 0 100 0
N332 34.893 1.758 0 100 0
N334 35.370 2.144 0 100 0
N336 51.650 3.098 0 100 0
N337 36.299 2.249 0 100 0
N339 35.055 3.020 0 100 0
N340 43.550 3.424 0 100 0
N341 41.886 3.359 0 100 0
N343 43.080 3.120 0 100 0
N345 39.502 2.134 0 100 0
N346 39.320 2.344 0 100 0
N347 51.632 2.322 0 100 0
N353 46.710 2.817 0 100 0
N354 45.135 3.122 0 100 0
N356 36.900 3.473 0 100 0
N357 37.030 2.111 0 100 0
N361 38.420 2.870 0 100 0
N362 36.619 1.872 0 100 0
N363 36.281 2.117 0 100 0
N364 49.486 4.050 0 100 0
N365 51.705 3.238 0 100 0
N366 35.269 2.661 0 100 0
N367 35.224 2.863 0 100 0
N372 34.685 1.415 0 100 0
N375 47.839 2.910 0 100 0
N379 39.735 2.095 0 100 0
N382 35.513 2.579 0 100 0
N383 35.940 2.138 0 100 0
N387 35.966 2.297 0 100 0
N389 34.425 3.006 0 100 0
N391 45.959 3.154 0 100 0
N394 38.710 4.072 0 100 0
N397 41.960 2.718 0 100 0
N401 32.586 2.986 0 100 0
N403 50.900 3.469 0 100 0
N405 39.923 2.593 0 100 0
N406 40.651 3.388 0 100 0
N408 34.780 3.440 0 100 0
N411 32.719 3.966 0 100 0
N412 42.320 1.927 0 100 0
N414 33.046 3.982 0 100 0
N416 41.140 2.882 0 100 0
N418 38.107 3.315 0 100 0
N419 35.808 3.119 0 100 0
N422 36.134 3.926 0 100 0
N426 45.145 3.441 0 100 0
N427 44.824 2.755 0 100 0
N431 35.279 2.066 0 100 0
N432 35.095 2.209 0 100 0
N434 42.773 3.706 0 100 0
N439 37.290 3.420 0 100 0
N440 36.961 3.447 0 100 0
N445 36.300 2.112 0 100 0
N446 36.274 2.126 0 100 0
N447 55.250 4.596 0 100 0
N450 49.610 2.811 0 100 0
N453 35.700 2.063 0 100 0
N455 38.390 2.732 0 100 0
N456 36.357 2.114 0 100 0
N457 35.170 1.805 0 100 0
N458 35.212 2.442 0 100 0
N460 39.540 1.904 0 100 0
N461 42.637 2.203 0 100 0
N464 40.448 3.760 0 100 0
N465 39.176 1.959 0 100 0
N466 39.490 2.730 0 100 0
N467 57.623 2.081 0 100 0
N468 55.800 3.662 0 100 0
N470 47.169 4.521 0 100 0
N471 46.580 4.564 0 100 0
N472 46.169 3.497 0 100 0
N473 35.020 1.851 0 100 0
N474 50.732 3.514 0 100 0
N477 41.422 3.225 0 100 0
N482 39.428 3.736 0 100 0
N483 41.214 1.861 0 100 0
N486 37.477 3.079 0 100 0
N487 36.787 3.735 0 100 0
N488 51.621 2.897 0 100 0
N489 51.510 2.982 0 100 0
N490 54.220 3.731 0 100 0
N491 53.967 2.939 0 100 0
N492 52.810 3.137 0 100 0
N498 50.727 2.299 0 100 0
N499 33.423 4.342 0 100 0
N501 39.463 2.651 0 100 0
N505 39.625 2.295 0 100 0
N507 45.459 4.561 0 100 0
N510 49.940 3.644 0 100 0
N511 51.145 3.190 0 100 0
N515 58.300 2.793 0 100 0
N517 43.094 6.483 0 100 0
N522 49.734 3.567 0 100 0
N530 37.167 4.807 0 100 0
N532 35.070 2.860 0 100 0
N533 34.618 2.939 0 100 0
N534 32.240 3.030 0 100 0
N536 37.010 3.096 0 100 0
N542 45.285 2.670 0 100 0
N544 39.369 4.277 0 100 0
N549 34.021 2.940 0 100 0
N550 34.744 2.613 0 100 0
N552 40.394 3.024 0 100 0
N553 48.140 2.793 0 100 0
N554 45.430 2.629 0 100 0
N557 35.619 1.049 0 100 0
N559 35.270 1.276 0 100 0
N560 34.762 1.816 0 100 0
N561 32.963 3.931 0 100 0
N562 42.870 2.345 0 100 0
N563 41.430 2.329 0 100 0
N564 49.760 2.098 0 100 0
N566 45.760 3.386 0 100 0
N567 48.612 3.242 0 100 0
N569 44.910 4.867 0 100 0
N573 40.715 3.309 0 100 0
N574 36.581 3.446 0 100 0
N576 49.555 3.324 0 100 0
N577 35.970 1.594 0 100 0
N578 39.268 4.830 0 100 0
N581 41.478 2.536 0 100 0
N582 38.650 3.321 0 100 0
N585 50.215 2.812 0 100 0
N587 46.381 2.907 0 100 0
N589 44.052 3.283 0 100 0
N592 45.599 3.674 0 100 0
N593 53.571 2.782 0 100 0
N595 33.429 2.808 0 100 0
N596 44.230 3.230 0 100 0
N597 32.569 3.455 0 100 0
N599 38.766 4.183 0 100 0
N600 38.855 3.600 0 100 0
N605 37.816 3.050 0 100 0
N607 46.223 0.686 0 100 0
N609 34.446 3.596 0 100 0
N610 34.073 3.898 0 100 0
N611 35.295 2.739 0 100 0
N612 33.109 2.581 0 100 0
N614 33.903 2.111 0 100 0
N615 50.870 2.566 0 100 0
N616 35.347 1.758 0 100 0
N618 35.192 2.774 0 100 0
N619 45.344 3.750 0 100 0
N620 33.741 2.070 0 100 0
N621 33.890 2.155 0 100 0
N623 33.440 2.809 0 100 0
N625 50.561 3.720 0 100 0
N626 49.760 3.692 0 100 0
N630 34.840 1.867 0 100 0
N631 34.726 2.082 0 100 0
N632 49.353 2.264 0 100 0
N633 50.950 1.881 0 100 0
N634 51.689 2.844 0 100 0
N640 41.790 2.591 0 100 0
N642 35.370 1.660 0 100 0
N644 40.718 4.234 0 100 0
N645 35.250 4.172 0 100 0
N646 37.140 1.806 0 100 0
N647 55.790 3.229 0 100 0
N649 36.256 4.456 0 100 0
N650 42.383 3.078 0 100 0
N652 49.144 3.427 0 100 0
N655 43.317 0.605 0 100 0
N656 42.337 1.633 0 100 0
N658 52.620 3.271 0 100 0
N659 44.080 2.532 0 100 0
N660 42.420 1.997 0 100 0
N662 48.901 2.356 0 100 0
N664 47.451 2.393 0 100 0
N665 47.150 2.376 0 100 0
N666 47.970 3.702 0 100 0
N668 50.069 2.900 0 100 0
N670 36.060 2.146 0 100 0
N672 35.894 3.285 0 100 0
N673 45.440 3.249 0 100 0
N674 44.782 3.279 0 100 0
N675 39.475 4.034 0 100 0
N676 40.010 2.015 0 100 0
N677 52.050 2.596 0 100 0
N683 51.778 2.164 0 100 0
N685 49.984 1.299 0 100 0
N686 49.631 1.708 0 100 0
N687 43.660 1.943 0 100 0
N688 43.000 2.103 0 100 0
N690 35.077 3.219 0 100 0
N691 38.411 3.031 0 100 0
N692 47.471 3.764 0 100 0
N693 39.870 3.623 0 100 0
N694 36.342 2.600 0 100 0
N695 47.870 2.297 0 100 0
N698 51.751 3.244 0 100 0
N699 51.368 3.394 0 100 0
N700 52.450 2.112 0 100 0
N702 40.280 1.126 0 100 0
N704 36.700 3.661 0 100 0
N705 36.089 3.423 0 100 0
N706 46.081 2.335 0 100 0
N711 38.536 3.471 0 100 0
N713 35.118 2.726 0 100 0
N714 41.389 3.892 0 100 0
N715 35.660 1.235 0 100 0
N716 47.080 5.865 0 100 0
N717 35.815 2.824 0 100 0
N719 33.423 2.686 0 100 0
N720 50.258 1.554 0 100 0
N722 46.660 2.678 0 100 0
N723 51.891 2.552 0 100 0
N725 46.515 2.740 0 100 0
N726 57.660 4.263 0 100 0
N727 57.140 4.206 0 100 0
N728 36.630 1.061 0 100 0
N729 50.107 2.575 0 100 0
N734 38.370 3.661 0 100 0
N735 37.476 3.733 0 100 0
N736 37.821 3.816 0 100 0
N737 38.216 3.012 0 100 0
N738 37.951 3.158 0 100 0
N741 58.877 3.033 0 100 0
N745 47.889 3.733 0 100 0
N748 35.273 3.142 0 100 0
N749 34.237 4.487 0 100 0
N750 53.070 2.650 0 100 0
N751 52.363 2.900 0 100 0
N753 36.740 3.130 0 100 0
N754 46.685 4.029 0 100 0
N755 35.267 1.717 0 100 0
N756 31.959 2.577 0 100 0
N758 43.671 2.886 0 100 0
N762 54.283 2.372 0 100 0
N763 36.282 2.304 0 100 0
N764 54.220 2.202 0 100 0
N766 35.050 2.009 0 100 0
N768 40.331 2.273 0 100 0
N771 42.100 2.910 0 100 0
N772 36.831 1.983 0 100 0
N777 38.610 0.927 0 100 0
N778 38.056 1.178 0 100 0
N779 44.712 3.349 0 100 0
N780 38.616 2.857 0 100 0
N781 40.740 2.067 0 100 0
N783 37.520 2.562 0 100 0
N787 41.025 3.599 0 100 0
N788 38.734 2.662 0 100 0
N789 36.547 2.506 0 100 0
N791 38.592 2.669 0 100 0
N792 50.670 3.537 0 100 0
N794 34.342 4.303 0 100 0
N795 54.100 2.556 0 100 0
N796 46.550 2.001 0 100 0
N798 34.996 2.095 0 100 0
N799 40.977 2.118 0 100 0
N801 33.840 1.151 0 100 0
N804 32.652 3.589 0 100 0
N806 33.085 1.858 0 100 0
N807 37.285 3.245 0 100 0
N808 35.110 1.812 0 100 0
N809 34.801 2.106 0 100 0
N811 38.540 2.416 0 100 0
N814 41.635 3.829 0 100 0
N815 46.006 3.694 0 100 0
N816 46.525 3.675 0 100 0
N817 46.660 3.100 0 100 0
N819 37.668 3.745 0 100 0
N822 49.056 3.412 0 100 0
N823 44.990 1.781 0 100 0
N827 36.039 1.941 0 100 0
N828 34.970 2.971 0 100 0
N829 40.340 2.223 0 100 0
N830 48.070 1.023 0 100 0
N832 50.318 2.479 0 100 0
N833 41.202 3.276 0 100 0
N834 35.840 1.948 0 100 0
N836 37.241 2.910 0 100 0
N837 35.377 1.841 0 100 0
N838 37.170 2.237 0 100 0
N839 34.642 2.678 0 100 0
N840 34.624 2.663 0 100 0
N842 42.970 2.276 0 100 0
N845 48.330 2.486 0 100 0
N847 39.969 2.592 0 100 0
N849 39.241 1.956 0 100 0
N851 36.119 2.381 0 100 0
N853 40.850 1.832 0 100 0
N854 34.230 1.552 0 100 0
N855 35.250 2.434 0 100 0
N857 51.380 4.132 0 100 0
N858 55.820 5.123 0 100 0
N862 41.625 2.739 0 100 0
N863 41.495 2.647 0 100 0
N865 37.748 3.404 0 100 0
N869 38.586 3.567 0 100 0
N870 42.812 3.610 0 100 0
N871 32.863 3.064 0 100 0
N873 37.980 2.502 0 100 0
N874 37.623 2.697 0 100 0
N875 36.040 2.852 0 100 0
N877 35.779 2.314 0 100 0
N878 52.961 2.613 0 100 0
N886 46.382 3.786 0 100 0
N887 33.863 2.872 0 100 0
N888 32.385 2.621 0 100 0
N890 48.272 3.856 0 100 0
N892 51.470 2.433 0 100 0
N893 32.771 3.935 0 100 0
N894 35.910 3.714 0 100 0
N895 38.000 2.425 0 100 0
N899 48.735 3.502 0 100 0
N903 33.840 2.220 0 100 0
N906 37.420 3.533 0 100 0
N908 36.680 2.850 0 100 0
N909 39.411 1.628 0 100 0
N912 49.097 3.847 0 100 0
N913 48.353 3.942 0 100 0
N914 40.350 1.869 0 100 0
N915 40.998 3.027 0 100 0
N916 42.980 2.086 0 100 0
N919 33.109 2.959 0 100 0
N921 34.866 2.439 0 100 0
N922 34.621 2.951 0 100 0
N923 33.349 3.715 0 100 0
N924 42.362 2.733 0 100 0
N925 48.540 3.579 0 100 0
N926 36.416 2.159 0 100 0
N929 49.256 3.478 0 100 0
N930 38.762 4.209 0 100 0
N931 41.010 2.615 0 100 0
N938 44.360 2.043 0 100 0
N939 34.910 1.562 0 100 0
N940 39.351 2.885 0 100 0
N941 32.930 1.957 0 100 0
N942 33.983 4.369 0 100 0
N944 42.459 3.316 0 100 0
N950 32.798 2.062 0 100 0
N951 36.477 1.294 0 100 0
N952 35.644 1.110 0 100 0
N954 41.536 3.663 0 100 0
N956 38.950 1.309 0 100 0
N957 50.558 2.917 0 100 0
N959 39.753 1.539 0 100 0
N960 33.890 2.228 0 100 0
N961 33.651 2.381 0 100 0
N962 46.612 2.918 0 100 0
N963 34.933 2.257 0 100 0
N964 39.047 2.052 0 100 0
N966 43.870 2.714 0 100 0
N967 36.294 2.514 0 100 0
N968 36.557 3.663 0 100 0
N970 36.825 0.693 0 100 0
N971 36.687 0.895 0 100 0
N972 50.511 1.192 0 100 0
N974 37.060 1.782 0 100 0
N975 40.150 1.820 0 100 0
N976 39.960 2.008 0 100 0
N977 51.250 3.077 0 100 0
N978 51.130 2.358 0 100 0
N979 35.370 2.808 0 100 0
N980 34.841 3.330 0 100 0
N984 41.090 1.442 0 100 0
N985 51.518 2.035 0 100 0
N986 50.411 1.209 0 100 0
N987 51.415 3.337 0 100 0
N990 52.110 2.243 0 100 0
N991 35.314 2.738 0 100 0
N992 38.821 2.316 0 100 0
N994 34.842 3.351 0 100 0
N995 46.962 3.470 0 100 0
N996 41.940 1.600 0 100 0
N997 31.575 3.005 0 100 0
N998 38.646 3.499 0 100 0
N999 34.480 1.911 0 100 0
N1000 52.410 2.681 0 100 0
N1001 35.444 2.854 0 100 0
N1002 51.810 2.158 0 100 0
N1003 43.341 0.627 0 100 0
N1005 37.045 1.822 0 100 0
N1006 42.894 1.743 0 100 0
N1007 40.700 2.178 0 100 0
N1009 36.193 1.859 0 100 0

[STORAGE]
;;Name Elev MaxDepth InitDepth Shape Coeff Expon Const SurDepth Fevap
MH4454411 34.867 3.145 0 FUNCTIONAL 0 0 0.8659 0 0
MH4450314 51.500 2.839 0 FUNCTIONAL 0 0 0.8659 0 0
MH4428367 47.068 3.235 0 FUNCTIONAL 0 0 0.8659 0 0
MH4428606 43.563 4.526 0 FUNCTIONAL 0 0 0.8659 0 0
MH4454744 35.806 2.261 0 FUNCTIONAL 0 0 0.8659 0 0
MH4452397 49.607 2.220 0 FUNCTIONAL 0 0 0.8659 0 0
MH4453133 35.839 2.851 0 FUNCTIONAL 0 0 0.8659 0 0
MH4447602 42.658 2.364 0 FUNCTIONAL 0 0 0.8659 0 0
MH4429312 40.280 3.428 0 FUNCTIONAL 0 0 0.8659 0 0
MH4453788 35.902 1.609 0 FUNCTIONAL 0 0 0.8659 0 0
MH4456108 36.501 2.672 0 FUNCTIONAL 0 0 0.8659 0 0
MH4454209 48.580 3.679 0 FUNCTIONAL 0 0 0.8659 0 0
MH1624017 34.117 2.944 0 FUNCTIONAL 0 0 0.8659 0 0
MH1623826 33.864 3.267 0 FUNCTIONAL 0 0 0.8659 0 0
MH4429136 40.448 4.504 0 FUNCTIONAL 0 0 0.8659 0 0
MH4501201 33.041 3.045 0 FUNCTIONAL 0 0 0.8659 0 0
MH4501544 32.362 3.536 0 FUNCTIONAL 0 0 0.8659 0 0
MH4454640 48.099 3.852 0 FUNCTIONAL 0 0 0.8659 0 0
MH4453512 35.431 2.628 0 FUNCTIONAL 0 0 0.8659 0 0
MH4452154 35.559 1.927 0 FUNCTIONAL 0 0 0.8659 0 0
MH4452217 35.474 1.964 0 FUNCTIONAL 0 0 0.8659 0 0
MH4446824 39.927 3.192 0 FUNCTIONAL 0 0 0.8659 0 0
MH4453931 50.454 2.866 0 FUNCTIONAL 0 0 0.8659 0 0
MH4456468 36.647 2.224 0 FUNCTIONAL 0 0 0.8659 0 0
MH4502097 32.170 3.264 0 FUNCTIONAL 0 0 0.8659 0 0
MH4447369 53.753 2.800 0 FUNCTIONAL 0 0 0.8659 0 0
MH4448345 38.659 4.213 0 FUNCTIONAL 0 0 0.8659 0 0
MH4448419 38.561 4.273 0 FUNCTIONAL 0 0 0.8659 0 0
MH4449083 51.354 2.465 0 FUNCTIONAL 0 0 0.8659 0 0
MH4499116 42.194 3.278 0 FUNCTIONAL 0 0 0.8659 0 0
MH4454674 50.442 2.618 0 FUNCTIONAL 0 0 0.8659 0 0
MH4427688 48.668 4.552 0 FUNCTIONAL 0 0 0.8659 0 0
MH4448753 53.015 1.771 0 FUNCTIONAL 0 0 0.8659 0 0
MH1627682 32.810 3.731 0 FUNCTIONAL 0 0 0.8659 0 0
MH4452538 47.903 2.248 0 FUNCTIONAL 0 0 0.8659 0 0
MH5118586 42.335 3.142 0 FUNCTIONAL 0 0 0.8659 0 0
MH4452724 40.719 2.046 0 FUNCTIONAL 0 0 0.8659 0 0
MH4448853 38.351 3.912 0 FUNCTIONAL 0 0 0.8659 0 0
MH4500422 38.979 3.681 0 FUNCTIONAL 0 0 0.8659 0 0
MH4449806 37.443 3.795 0 FUNCTIONAL 0 0 0.8659 0 0
MH4450137 37.165 3.416 0 FUNCTIONAL 0 0 0.8659 0 0
MH4428117 48.304 3.625 0 FUNCTIONAL 0 0 0.8659 0 0
MH4428139 48.007 3.559 0 FUNCTIONAL 0 0 0.8659 0 0
MH4455909 33.553 4.579 0 FUNCTIONAL 0 0 0.8659 0 0
MH4451823 34.669 3.783 0 FUNCTIONAL 0 0 0.8659 0 0
MH4450787 42.832 3.613 0 FUNCTIONAL 0 0 0.8659 0 0
MH4428026 48.092 3.508 0 FUNCTIONAL 0 0 0.8659 0 0
MH4501866 32.590 2.188 0 FUNCTIONAL 0 0 0.8659 0 0
MH1627986 33.276 3.257 0 FUNCTIONAL 0 0 0.8659 0 0
MH4499632 44.740 4.605 0 FUNCTIONAL 0 0 0.8659 0 0
MH4429035 43.298 3.435 0 FUNCTIONAL 0 0 0.8659 0 0
MH4449704 39.716 3.085 0 FUNCTIONAL 0 0 0.8659 0 0
MH4449118 39.195 3.705 0 FUNCTIONAL 0 0 0.8659 0 0
MH1629281 32.840 3.844 0 FUNCTIONAL 0 0 0.8659 0 0
MH4454718 48.620 2.416 0 FUNCTIONAL 0 0 0.8659 0 0
MH4451287 42.609 3.339 0 FUNCTIONAL 0 0 0.8659 0 0
MH4450219 47.522 3.700 0 FUNCTIONAL 0 0 0.8659 0 0
MH4449321 38.217 3.686 0 FUNCTIONAL 0 0 0.8659 0 0
MH4448509 38.863 2.750 0 FUNCTIONAL 0 0 0.8659 0 0
MH4428524 50.530 3.248 0 FUNCTIONAL 0 0 0.8659 0 0
MH1627084 34.206 2.726 0 FUNCTIONAL 0 0 0.8659 0 0
MH4455762 35.425 3.472 0 FUNCTIONAL 0 0 0.8659 0 0
MH4452721 36.284 4.090 0 FUNCTIONAL 0 0 0.8659 0 0
MH4447128 39.720 2.466 0 FUNCTIONAL 0 0 0.8659 0 0
MH4447726 39.174 3.733 0 FUNCTIONAL 0 0 0.8659 0 0
MH4428268 43.685 3.789 0 FUNCTIONAL 0 0 0.8659 0 0
MH4428636 41.957 3.620 0 FUNCTIONAL 0 0 0.8659 0 0
MH4452977 36.534 1.899 0 FUNCTIONAL 0 0 0.8659 0 0
MH1632309 29.753 3.583 0 FUNCTIONAL 0 0 0.8659 0 0
MH4500035 33.389 3.055 0 FUNCTIONAL 0 0 0.8659 0 0
MH4451759 35.888 2.554 0 FUNCTIONAL 0 0 0.8659 0 0
MH4454490 39.780 3.380 0 FUNCTIONAL 0 0 0.8659 0 0
MH4447880 41.189 2.742 0 FUNCTIONAL 0 0 0.8659 0 0
MH4499417 34.209 3.618 0 FUNCTIONAL 0 0 0.8659 0 0
MH4453579 34.873 2.441 0 FUNCTIONAL 0 0 0.8659 0 0
MH4451531 36.281 1.953 0 FUNCTIONAL 0 0 0.8659 0 0
MH4449785 37.918 4.427 0 FUNCTIONAL 0 0 0.8659 0 0
MH4447416 39.838 3.115 0 FUNCTIONAL 0 0 0.8659 0 0
MH4453124 39.850 2.829 0 FUNCTIONAL 0 0 0.8659 0 0
MH5228371 39.727 2.366 0 FUNCTIONAL 0 0 0.8659 0 0
MH6153571 33.151 3.913 0 FUNCTIONAL 0 0 0.8659 0 0
MH4427425 55.793 2.366 0 FUNCTIONAL 0 0 0.8659 0 0
MH7465841 42.289 2.751 0 FUNCTIONAL 0 0 0.8659 0 0
MH4451971 48.543 2.520 0 FUNCTIONAL 0 0 0.8659 0 0
MH4450757 45.809 2.656 0 FUNCTIONAL 0 0 0.8659 0 0
MH4447684 45.038 3.089 0 FUNCTIONAL 0 0 0.8659 0 0
MH4449173 38.253 4.462 0 FUNCTIONAL 0 0 0.8659 0 0
MH4451058 45.960 3.252 0 FUNCTIONAL 0 0 0.8659 0 0
MH4452032 37.479 2.070 0 FUNCTIONAL 0 0 0.8659 0 0
MH4451840 36.656 2.521 0 FUNCTIONAL 0 0 0.8659 0 0
MH1790845 47.878 3.035 0 FUNCTIONAL 0 0 0.8659 0 0
MH4456553 33.294 4.124 0 FUNCTIONAL 0 0 0.8659 0 0
MH4449510 51.070 3.441 0 FUNCTIONAL 0 0 0.8659 0 0
MH4428713 40.640 2.564 0 FUNCTIONAL 0 0 0.8659 0 0
MH4428995 39.848 1.686 0 FUNCTIONAL 0 0 0.8659 0 0
MH4447351 51.631 3.112 0 FUNCTIONAL 0 0 0.8659 0 0
MH4450170 49.010 3.396 0 FUNCTIONAL 0 0 0.8659 0 0
MH4500254 34.352 2.355 0 FUNCTIONAL 0 0 0.8659 0 0
MH4448662 52.317 3.111 0 FUNCTIONAL 0 0 0.8659 0 0
MH4429357 39.238 1.795 0 FUNCTIONAL 0 0 0.8659 0 0
MH5286735 50.467 2.588 0 FUNCTIONAL 0 0 0.8659 0 0
MH4449860 40.549 0.979 0 FUNCTIONAL 0 0 0.8659 0 0
MH4452919 36.617 2.491 0 FUNCTIONAL 0 0 0.8659 0 0
MH4450449 37.025 4.825 0 FUNCTIONAL 0 0 0.8659 0 0
MH4450581 36.641 5.064 0 FUNCTIONAL 0 0 0.8659 0 0
MH6042164 45.846 2.860 0 FUNCTIONAL 0 0 0.8659 0 0
MH1625395 34.431 2.497 0 FUNCTIONAL 0 0 0.8659 0 0
MH4447397 38.726 2.498 0 FUNCTIONAL 0 0 0.8659 0 0
MH5241467 38.440 2.999 0 FUNCTIONAL 0 0 0.8659 0 0
MH4455121 34.143 4.426 0 FUNCTIONAL 0 0 0.8659 0 0
MH4428765 40.840 1.940 0 FUNCTIONAL 0 0 0.8659 0 0
MH1624138 32.901 4.182 0 FUNCTIONAL 0 0 0.8659 0 0
MH4452902 50.022 2.963 0 FUNCTIONAL 0 0 0.8659 0 0
MH4452980 49.641 3.255 0 FUNCTIONAL 0 0 0.8659 0 0
MH4451333 51.094 1.987 0 FUNCTIONAL 0 0 0.8659 0 0
MH1623974 34.358 2.660 0 FUNCTIONAL 0 0 0.8659 0 0
MH4428320 45.209 3.073 0 FUNCTIONAL 0 0 0.8659 0 0
MH1632398 29.593 3.499 0 FUNCTIONAL 0 0 0.8659 0 0
MH4447643 37.732 3.685 0 FUNCTIONAL 0 0 0.8659 0 0
MH4452081 44.145 3.697 0 FUNCTIONAL 0 0 0.8659 0 0
MH4429013 41.119 3.255 0 FUNCTIONAL 0 0 0.8659 0 0
MH4429468 38.887 2.127 0 FUNCTIONAL 0 0 0.8659 0 0
MH4446883 38.551 2.535 0 FUNCTIONAL 0 0 0.8659 0 0
MH4451092 45.675 3.529 0 FUNCTIONAL 0 0 0.8659 0 0
MH4448796 51.872 2.993 0 FUNCTIONAL 0 0 0.8659 0 0
MH4500902 34.745 3.441 0 FUNCTIONAL 0 0 0.8659 0 0
MH4449330 52.174 1.744 0 FUNCTIONAL 0 0 0.8659 0 0
MH4450211 41.847 3.336 0 FUNCTIONAL 0 0 0.8659 0 0
MH4453770 50.878 2.894 0 FUNCTIONAL 0 0 0.8659 0 0
MH4429527 39.214 2.540 0 FUNCTIONAL 0 0 0.8659 0 0
MH4450975 37.523 2.960 0 FUNCTIONAL 0 0 0.8659 0 0
MH4450207 39.265 2.677 0 FUNCTIONAL 0 0 0.8659 0 0
MH4453740 45.124 3.384 0 FUNCTIONAL 0 0 0.8659 0 0
MH4429179 38.683 2.372 0 FUNCTIONAL 0 0 0.8659 0 0
MH4452527 35.208 2.900 0 FUNCTIONAL 0 0 0.8659 0 0
MH4452680 35.160 2.700 0 FUNCTIONAL 0 0 0.8659 0 0
MH1624769 32.804 4.025 0 FUNCTIONAL 0 0 0.8659 0 0
MH4454629 34.615 3.512 0 FUNCTIONAL 0 0 0.8659 0 0
MH1624494 32.535 3.283 0 FUNCTIONAL 0 0 0.8659 0 0
MH4451143 37.882 2.543 0 FUNCTIONAL 0 0 0.8659 0 0
MH4450922 35.833 4.051 0 FUNCTIONAL 0 0 0.8659 0 0
MH4451207 35.510 4.121 0 FUNCTIONAL 0 0 0.8659 0 0
MH8963773 38.757 2.530 0 FUNCTIONAL 0 0 0.8659 0 0
MH4454643 48.932 3.338 0 FUNCTIONAL 0 0 0.8659 0 0
MH4426971 57.431 3.202 0 FUNCTIONAL 0 0 0.8659 0 0
MH4453970 35.256 1.732 0 FUNCTIONAL 0 0 0.8659 0 0
MH4498454 46.330 2.889 0 FUNCTIONAL 0 0 0.8659 0 0
MH4429503 37.958 3.783 0 FUNCTIONAL 0 0 0.8659 0 0
MH4429645 42.161 2.709 0 FUNCTIONAL 0 0 0.8659 0 0
MH4452011 36.010 2.817 0 FUNCTIONAL 0 0 0.8659 0 0
MH4451871 35.931 2.938 0 FUNCTIONAL 0 0 0.8659 0 0
MH4449103 38.354 4.326 0 FUNCTIONAL 0 0 0.8659 0 0
MH4499048 38.854 3.538 0 FUNCTIONAL 0 0 0.8659 0 0
MH4499729 40.386 2.812 0 FUNCTIONAL 0 0 0.8659 0 0
MH4456532 39.732 3.229 0 FUNCTIONAL 0 0 0.8659 0 0
MH4454376 34.440 4.504 0 FUNCTIONAL 0 0 0.8659 0 0
MH4499323 38.631 3.187 0 FUNCTIONAL 0 0 0.8659 0 0
MH1623928 32.955 4.125 0 FUNCTIONAL 0 0 0.8659 0 0
MH4428920 40.244 2.816 0 FUNCTIONAL 0 0 0.8659 0 0
MH4449849 38.165 4.088 0 FUNCTIONAL 0 0 0.8659 0 0
MH4455780 45.639 3.448 0 FUNCTIONAL 0 0 0.8659 0 0
MH4429019 43.685 3.440 0 FUNCTIONAL 0 0 0.8659 0 0
MH4447394 38.942 4.543 0 FUNCTIONAL 0 0 0.8659 0 0
MH4453315 46.640 1.871 0 FUNCTIONAL 0 0 0.8659 0 0
MH4453553 46.239 3.350 0 FUNCTIONAL 0 0 0.8659 0 0
MH4428426 49.214 2.848 0 FUNCTIONAL 0 0 0.8659 0 0
MH4428245 47.745 3.014 0 FUNCTIONAL 0 0 0.8659 0 0
MH4450378 37.434 4.491 0 FUNCTIONAL 0 0 0.8659 0 0
MH4450554 37.205 4.699 0 FUNCTIONAL 0 0 0.8659 0 0
MH1631057 31.118 4.639 0 FUNCTIONAL 0 0 0.8659 0 0
MH1631514 30.714 3.845 0 FUNCTIONAL 0 0 0.8659 0 0
MH4427095 54.790 4.430 0 FUNCTIONAL 0 0 0.8659 0 0
MH4455516 49.162 3.140 0 FUNCTIONAL 0 0 0.8659 0 0
MH1623725 36.193 1.408 0 FUNCTIONAL 0 0 0.8659 0 0
MH4456551 34.821 3.412 0 FUNCTIONAL 0 0 0.8659 0 0
MH4453489 35.030 2.327 0 FUNCTIONAL 0 0 0.8659 0 0
MH4449436 41.776 5.430 0 FUNCTIONAL 0 0 0.8659 0 0
MH4455808 47.861 3.836 0 FUNCTIONAL 0 0 0.8659 0 0
MH4450920 50.641 3.311 0 FUNCTIONAL 0 0 0.8659 0 0
MH4451516 42.870 3.151 0 FUNCTIONAL 0 0 0.8659 0 0
MH4452994 35.507 2.712 0 FUNCTIONAL 0 0 0.8659 0 0
MH4452189 35.291 2.754 0 FUNCTIONAL 0 0 0.8659 0 0
MH4449882 39.770 2.956 0 FUNCTIONAL 0 0 0.8659 0 0
MH1629073 33.361 2.704 0 FUNCTIONAL 0 0 0.8659 0 0
MH4429320 41.122 1.382 0 FUNCTIONAL 0 0 0.8659 0 0
MH4451945 39.485 3.151 0 FUNCTIONAL 0 0 0.8659 0 0
MH4452809 36.772 2.108 0 FUNCTIONAL 0 0 0.8659 0 0
MH4452632 36.590 2.262 0 FUNCTIONAL 0 0 0.8659 0 0
MH4453981 40.430 2.850 0 FUNCTIONAL 0 0 0.8659 0 0
MH4320104 46.005 4.919 0 FUNCTIONAL 0 0 0.8659 0 0
MH4426673 59.141 2.568 0 FUNCTIONAL 0 0 0.8659 0 0
MH4450077 45.025 5.195 0 FUNCTIONAL 0 0 0.8659 0 0
MH4428836 40.472 2.540 0 FUNCTIONAL 0 0 0.8659 0 0
MH4429107 39.756 2.389 0 FUNCTIONAL 0 0 0.8659 0 0
MH4429656 38.393 2.755 0 FUNCTIONAL 0 0 0.8659 0 0
MH4450617 44.304 2.212 0 FUNCTIONAL 0 0 0.8659 0 0
MH4448392 42.764 2.143 0 FUNCTIONAL 0 0 0.8659 0 0
MH4448813 42.167 2.369 0 FUNCTIONAL 0 0 0.8659 0 0
MH4449913 37.284 4.363 0 FUNCTIONAL 0 0 0.8659 0 0
MH4427309 54.807 4.018 0 FUNCTIONAL 0 0 0.8659 0 0
MH1625316 32.146 3.253 0 FUNCTIONAL 0 0 0.8659 0 0
MH4429584 38.883 2.328 0 FUNCTIONAL 0 0 0.8659 0 0
MH4429544 38.667 2.469 0 FUNCTIONAL 0 0 0.8659 0 0
MH4452946 36.062 2.958 0 FUNCTIONAL 0 0 0.8659 0 0
MH4428797 44.045 2.997 0 FUNCTIONAL 0 0 0.8659 0 0
MH4451468 35.879 4.087 0 FUNCTIONAL 0 0 0.8659 0 0
MH4450391 36.842 3.505 0 FUNCTIONAL 0 0 0.8659 0 0
MH4450531 36.583 3.702 0 FUNCTIONAL 0 0 0.8659 0 0
MH1629194 31.667 4.564 0 FUNCTIONAL 0 0 0.8659 0 0
MH4449977 41.085 2.295 0 FUNCTIONAL 0 0 0.8659 0 0
MH4454125 35.270 1.705 0 FUNCTIONAL 0 0 0.8659 0 0
MH4453047 49.452 2.092 0 FUNCTIONAL 0 0 0.8659 0 0
MH4455813 48.099 3.648 0 FUNCTIONAL 0 0 0.8659 0 0
MH4451576 41.859 3.190 0 FUNCTIONAL 0 0 0.8659 0 0
MH4450193 37.568 4.379 0 FUNCTIONAL 0 0 0.8659 0 0
MH4449635 50.427 3.380 0 FUNCTIONAL 0 0 0.8659 0 0
MH4454657 49.507 3.445 0 FUNCTIONAL 0 0 0.8659 0 0
MH4428800 45.249 4.116 0 FUNCTIONAL 0 0 0.8659 0 0
MH4452071 39.634 3.522 0 FUNCTIONAL 0 0 0.8659 0 0
MH4454876 48.141 2.656 0 FUNCTIONAL 0 0 0.8659 0 0
MH4455429 45.093 2.726 0 FUNCTIONAL 0 0 0.8659 0 0
MH4448762 38.104 2.619 0 FUNCTIONAL 0 0 0.8659 0 0
MH4454901 42.318 4.043 0 FUNCTIONAL 0 0 0.8659 0 0
MH1624202 32.651 3.388 0 FUNCTIONAL 0 0 0.8659 0 0
MH4454195 35.313 1.767 0 FUNCTIONAL 0 0 0.8659 0 0
MH1626450 33.288 2.640 0 FUNCTIONAL 0 0 0.8659 0 0
MH1626578 33.221 3.142 0 FUNCTIONAL 0 0 0.8659 0 0
MH4429411 42.201 2.496 0 FUNCTIONAL 0 0 0.8659 0 0
MH4501851 32.603 2.150 0 FUNCTIONAL 0 0 0.8659 0 0
MH4456372 47.200 2.405 0 FUNCTIONAL 0 0 0.8659 0 0
MH5216010 47.597 2.602 0 FUNCTIONAL 0 0 0.8659 0 0
MH4498407 46.413 2.813 0 FUNCTIONAL 0 0 0.8659 0 0
MH4453748 35.067 2.050 0 FUNCTIONAL 0 0 0.8659 0 0
MH4427312 54.018 3.637 0 FUNCTIONAL 0 0 0.8659 0 0
MH4451113 50.442 3.007 0 FUNCTIONAL 0 0 0.8659 0 0
MH4450100 40.320 1.658 0 FUNCTIONAL 0 0 0.8659 0 0
MH4450180 38.976 2.244 0 FUNCTIONAL 0 0 0.8659 0 0
MH4429323 53.317 2.990 0 FUNCTIONAL 0 0 0.8659 0 0
MH4449920 49.305 3.276 0 FUNCTIONAL 0 0 0.8659 0 0
MH1790382 48.409 2.659 0 FUNCTIONAL 0 0 0.8659 0 0
MH4455602 47.163 3.102 0 FUNCTIONAL 0 0 0.8659 0 0
MH4429471 40.384 2.241 0 FUNCTIONAL 0 0 0.8659 0 0
MH4451886 35.376 2.644 0 FUNCTIONAL 0 0 0.8659 0 0
MH4450802 51.000 3.171 0 FUNCTIONAL 0 0 0.8659 0 0
MH4447506 53.536 2.813 0 FUNCTIONAL 0 0 0.8659 0 0
MH4429499 39.552 4.511 0 FUNCTIONAL 0 0 0.8659 0 0
MH4447691 37.724 3.701 0 FUNCTIONAL 0 0 0.8659 0 0
MH4449485 51.143 3.405 0 FUNCTIONAL 0 0 0.8659 0 0
MH5233531 35.219 3.280 0 FUNCTIONAL 0 0 0.8659 0 0
MH4428146 45.035 2.688 0 FUNCTIONAL 0 0 0.8659 0 0
MH4428096 51.482 2.148 0 FUNCTIONAL 0 0 0.8659 0 0
MH4450167 38.616 3.152 0 FUNCTIONAL 0 0 0.8659 0 0
MH1630330 31.347 2.922 0 FUNCTIONAL 0 0 0.8659 0 0
MH1630926 31.012 3.131 0 FUNCTIONAL 0 0 0.8659 0 0
MH4500043 44.313 3.411 0 FUNCTIONAL 0 0 0.8659 0 0
MH4454993 35.544 3.622 0 FUNCTIONAL 0 0 0.8659 0 0
MH1629888 32.285 3.684 0 FUNCTIONAL 0 0 0.8659 0 0
MH4427714 49.726 2.906 0 FUNCTIONAL 0 0 0.8659 0 0
MH4450332 38.781 1.508 0 FUNCTIONAL 0 0 0.8659 0 0
MH4452952 49.967 2.888 0 FUNCTIONAL 0 0 0.8659 0 0
MH4426188 58.178 3.818 0 FUNCTIONAL 0 0 0.8659 0 0
MH4426979 57.462 2.919 0 FUNCTIONAL 0 0 0.8659 0 0
MH4455191 47.565 3.231 0 FUNCTIONAL 0 0 0.8659 0 0
MH4454312 35.716 2.710 0 FUNCTIONAL 0 0 0.8659 0 0
MH4427849 50.263 3.171 0 FUNCTIONAL 0 0 0.8659 0 0
MH1625959 31.840 2.676 0 FUNCTIONAL 0 0 0.8659 0 0
MH4498291 48.062 1.778 0 FUNCTIONAL 0 0 0.8659 0 0
MH5164627 34.977 1.591 0 FUNCTIONAL 0 0 0.8659 0 0
MH4453850 35.859 1.674 0 FUNCTIONAL 0 0 0.8659 0 0
MH4454009 35.699 1.717 0 FUNCTIONAL 0 0 0.8659 0 0
MH4453031 36.790 1.977 0 FUNCTIONAL 0 0 0.8659 0 0
MH1626189 32.514 3.589 0 FUNCTIONAL 0 0 0.8659 0 0
MH4499059 45.636 3.459 0 FUNCTIONAL 0 0 0.8659 0 0
MH4451673 36.400 2.847 0 FUNCTIONAL 0 0 0.8659 0 0
MH4447346 40.500 2.014 0 FUNCTIONAL 0 0 0.8659 0 0
MH4427659 54.073 2.751 0 FUNCTIONAL 0 0 0.8659 0 0
MH4453098 35.056 2.245 0 FUNCTIONAL 0 0 0.8659 0 0
MH4502186 32.127 3.317 0 FUNCTIONAL 0 0 0.8659 0 0
MH4500625 33.422 2.043 0 FUNCTIONAL 0 0 0.8659 0 0
MH4429420 47.593 3.446 0 FUNCTIONAL 0 0 0.8659 0 0
MH4450396 46.093 3.234 0 FUNCTIONAL 0 0 0.8659 0 0
MH4499406 40.930 3.107 0 FUNCTIONAL 0 0 0.8659 0 0
MH4456777 38.769 3.514 0 FUNCTIONAL 0 0 0.8659 0 0
MH4428638 44.661 1.613 0 FUNCTIONAL 0 0 0.8659 0 0
MH8707824 36.327 1.656 0 FUNCTIONAL 0 0 0.8659 0 0
MH4454398 47.682 1.357 0 FUNCTIONAL 0 0 0.8659 0 0
MH4453185 35.431 2.018 0 FUNCTIONAL 0 0 0.8659 0 0
MH4450847 44.349 3.339 0 FUNCTIONAL 0 0 0.8659 0 0
MH4428583 40.972 2.492 0 FUNCTIONAL 0 0 0.8659 0 0
MH4455943 47.718 2.404 0 FUNCTIONAL 0 0 0.8659 0 0
MH4426728 55.734 5.232 0 FUNCTIONAL 0 0 0.8659 0 0
MH4427741 52.390 3.561 0 FUNCTIONAL 0 0 0.8659 0 0
MH4452541 37.287 3.229 0 FUNCTIONAL 0 0 0.8659 0 0
MH4449796 37.583 3.726 0 FUNCTIONAL 0 0 0.8659 0 0
MH4450269 46.159 2.947 0 FUNCTIONAL 0 0 0.8659 0 0
MH4447355 54.595 1.453 0 FUNCTIONAL 0 0 0.8659 0 0
MH4448029 53.606 1.772 0 FUNCTIONAL 0 0 0.8659 0 0
MH4452462 36.038 2.329 0 FUNCTIONAL 0 0 0.8659 0 0
MH4448626 52.360 3.150 0 FUNCTIONAL 0 0 0.8659 0 0
MH4428137 44.429 2.991 0 FUNCTIONAL 0 0 0.8659 0 0
MH1630702 31.666 2.209 0 FUNCTIONAL 0 0 0.8659 0 0
MH4454116 34.596 3.049 0 FUNCTIONAL 0 0 0.8659 0 0
MH4452110 37.776 1.948 0 FUNCTIONAL 0 0 0.8659 0 0
MH4428968 51.960 2.772 0 FUNCTIONAL 0 0 0.8659 0 0
MH4500689 33.057 2.326 0 FUNCTIONAL 0 0 0.8659 0 0
MH1623436 36.245 0.500 0 FUNCTIONAL 0 0 0.8659 0 0
MH4454395 49.226 1.622 0 FUNCTIONAL 0 0 0.8659 0 0
MH4449866 39.457 2.495 0 FUNCTIONAL 0 0 0.8659 0 0
MH4449011 37.531 3.299 0 FUNCTIONAL 0 0 0.8659 0 0
MH4452760 37.437 2.227 0 FUNCTIONAL 0 0 0.8659 0 0
MH4447668 39.317 1.431 0 FUNCTIONAL 0 0 0.8659 0 0
MH4448929 40.259 3.409 0 FUNCTIONAL 0 0 0.8659 0 0
MH4448474 38.580 2.993 0 FUNCTIONAL 0 0 0.8659 0 0
MH4429086 42.917 3.238 0 FUNCTIONAL 0 0 0.8659 0 0
MH4320244 45.160 4.690 0 FUNCTIONAL 0 0 0.8659 0 0
MH4429268 39.684 1.368 0 FUNCTIONAL 0 0 0.8659 0 0
MH4451870 36.065 2.315 0 FUNCTIONAL 0 0 0.8659 0 0
MH4453213 49.461 3.272 0 FUNCTIONAL 0 0 0.8659 0 0
MH4428067 52.149 2.671 0 FUNCTIONAL 0 0 0.8659 0 0
MH4453837 35.440 3.812 0 FUNCTIONAL 0 0 0.8659 0 0
MH4451967 35.830 2.628 0 FUNCTIONAL 0 0 0.8659 0 0
MH4449503 41.640 2.035 0 FUNCTIONAL 0 0 0.8659 0 0
MH4428188 43.929 3.189 0 FUNCTIONAL 0 0 0.8659 0 0
MH4449778 38.235 1.817 0 FUNCTIONAL 0 0 0.8659 0 0
MH4447452 38.744 2.846 0 FUNCTIONAL 0 0 0.8659 0 0
MH4427588 53.615 2.785 0 FUNCTIONAL 0 0 0.8659 0 0
MH4450776 39.010 2.654 0 FUNCTIONAL 0 0 0.8659 0 0
MH4453095 35.596 2.683 0 FUNCTIONAL 0 0 0.8659 0 0

[OUTFALLS]
;;Name Invert Type Stage Gated
X385 57.014 FREE NO
X570 53.303 FREE NO
OUT 29.151 FREE NO
X902 58.331 FREE NO

[PUMPS]
;;Name From To Curve Status Startup Shutoff
P4433449 N183 MH4451967 * ON 0 0
P1495438 N997 MH1623725 * ON 0 0

[CONDUITS]
;;Name From To Length N InOffset OutOffset InitFlow
N0>N1 N0 N1 64.045 0.013 31.9900 31.8100 0
MH4454411>N3 MH4454411 N3 46.896 0.013 34.8670 34.6330 0
N4>MH4450314 N4 MH4450314 20.909 0.013 51.7500 51.5370 0
N8>N9 N8 N9 17.851 0.013 40.9700 40.5600 0
N10>MH4428367 N10 MH4428367 48.753 0.013 49.7830 47.0680 0
MH4428606>N13 MH4428606 N13 75.425 0.013 43.5630 42.0560 0
MH4454744>N15 MH4454744 N15 17.458 0.013 35.8060 35.6120 0
N18>MH4452397 N18 MH4452397 32.921 0.013 50.0790 49.6070 0
N20>MH4453133 N20 MH4453133 39.213 0.013 36.0380 35.8390 0
N22>MH4447602 N22 MH4447602 55.013 0.013 43.3500 42.6580 0
MH4429312>N25 MH4429312 N25 76.137 0.013 40.2800 39.6410 0
N26>MH4453788 N26 MH4453788 27.233 0.013 36.1180 35.9020 0
N28>MH4456108 N28 MH4456108 49.062 0.013 39.5400 36.5010 0
N30>N31 N30 N31 48.294 0.013 44.4200 42.8290 0
N32>N33 N32 N33 18.325 0.013 43.2320 42.5000 0
N34>N35 N34 N35 44.747 0.013 46.4620 46.2400 0
N38>MH4454209 N38 MH4454209 53.766 0.013 48.9400 48.5800 0
MH1624017>MH1623826 MH1624017 MH1623826 22.830 0.013 34.1170 33.8640 0
MH4429136>N43 MH4429136 N43 66.475 0.013 40.4480 39.9970 0
MH4501201>N45 MH4501201 N45 32.340 0.013 33.0410 32.9600 0
MH1623826>N46 MH1623826 N46 37.457 0.013 33.8640 33.4470 0
N47>MH4501544 N47 MH4501544 23.898 0.013 32.4090 32.3620 0
N49>N50 N49 N50 43.739 0.013 47.7160 46.7880 0
N51>MH4454640 N51 MH4454640 12.170 0.013 48.1810 48.0990 0
N53>MH4453512 N53 MH4453512 37.267 0.013 35.6170 35.4310 0
MH4452154>MH4452217 MH4452154 MH4452217 21.522 0.013 35.5590 35.4740 0
N59>MH4446824 N59 MH4446824 37.272 0.013 40.8000 39.9270 0
N61>N62 N61 N62 45.910 0.013 46.8090 46.3560 0
N63>N64 N63 N64 40.452 0.013 36.9280 36.2620 0
MH4453931>N66 MH4453931 N66 49.802 0.013 50.4540 49.7880 0
N67>MH4456468 N67 MH4456468 21.060 0.013 36.8600 36.6470 0
N69>MH4502097 N69 MH4502097 58.128 0.013 32.2860 32.1700 0
N71>N72 N71 N72 44.638 0.013 38.2300 36.6300 0
N73>MH4447369 N73 MH4447369 1.014 0.013 53.8320 53.7950 0
MH4448345>MH4448419 MH4448345 MH4448419 6.623 0.013 38.6590 38.5610 0
N77>MH4449083 N77 MH4449083 61.717 0.013 52.9400 51.3540 0
N13>MH4429136 N13 MH4429136 78.258 0.013 42.0560 40.4850 0
N79>MH4499116 N79 MH4499116 8.779 0.013 42.4570 42.1940 0
N81>N82 N81 N82 17.753 0.013 49.0430 48.8340 0
N83>MH4454674 N83 MH4454674 26.330 0.013 50.6620 50.4420 0
N85>MH4427688 N85 MH4427688 62.024 0.013 51.7970 48.7050 0
N87>MH4448753 N87 MH4448753 12.107 0.013 53.1350 53.0150 0
N89>MH1627682 N89 MH1627682 40.519 0.013 33.0120 32.8100 0
MH4452538>MH5118586 MH4452538 MH5118586 92.267 0.013 47.9030 42.3350 0
N33>MH4452724 N33 MH4452724 39.216 0.013 42.5000 40.7190 0
MH4448853>N97 MH4448853 N97 64.299 0.013 38.3510 38.1700 0
N98>MH4500422 N98 MH4500422 36.576 0.013 40.8250 38.9790 0
N100>N101 N100 N101 48.130 0.013 43.3830 40.9800 0
MH4449806>MH4450137 MH4449806 MH4450137 83.505 0.013 37.4430 37.1650 0
MH4428117>MH4428139 MH4428117 MH4428139 5.369 0.013 48.3040 48.0070 0
N106>MH4455909 N106 MH4455909 64.410 0.013 33.7710 33.5530 0
N108>MH5118586 N108 MH5118586 26.396 0.013 43.4820 42.3350 0
N109>MH4451823 N109 MH4451823 100.135 0.013 35.9000 34.6690 0
MH4450787>N112 MH4450787 N112 67.182 0.013 42.8320 42.0000 0
N113>MH4428026 N113 MH4428026 43.096 0.013 50.4980 48.0920 0
MH4501866>N116 MH4501866 N116 32.568 0.013 32.5900 32.5090 0
N119>MH1627986 N119 MH1627986 41.992 0.013 33.6500 33.2760 0
MH4499632>N122 MH4499632 N122 25.092 0.013 44.7400 44.6040 0
MH4429035>N124 MH4429035 N124 55.022 0.013 43.2980 41.7690 0
MH4454674>N125 MH4454674 N125 22.984 0.013 50.4420 50.2510 0
MH4449704>MH4449118 MH4449704 MH4449118 80.162 0.013 39.7160 39.1950 0
N128>MH1629281 N128 MH1629281 15.086 0.013 32.9140 32.8400 0
N82>MH4454718 N82 MH4454718 18.437 0.013 48.8340 48.6200 0
N131>MH4451287 N131 MH4451287 59.925 0.013 43.4650 42.6090 0
N133>N134 N133 N134 5.884 0.013 45.3860 45.2200 0
N137>MH4450219 N137 MH4450219 59.448 0.013 48.9030 47.5220 0
N139>MH4449321 N139 MH4449321 22.323 0.013 38.4020 38.2530 0
MH4448509>N142 MH4448509 N142 52.223 0.013 38.8630 38.5140 0
N143>MH4428524 N143 MH4428524 59.214 0.013 51.1300 50.8230 0
N145>MH1627084 N145 MH1627084 30.991 0.013 34.5180 34.2060 0
MH1627084>N147 MH1627084 N147 32.715 0.013 34.2060 33.9070 0
N148>N79 N148 N79 31.595 0.013 43.4030 42.4570 0
N149>N150 N149 N150 44.244 0.013 37.4230 35.9610 0
N151>MH4455762 N151 MH4455762 14.500 0.013 35.5690 35.4250 0
N153>N154 N153 N154 39.310 0.013 33.2300 32.7400 0
N155>MH4452721 N155 MH4452721 42.509 0.013 37.4770 36.3610 0
N157>N158 N157 N158 46.044 0.013 32.6140 31.8370 0
N159>MH4453931 N159 MH4453931 56.301 0.013 51.1750 50.4540 0
MH4447128>MH4447726 MH4447128 MH4447726 82.206 0.013 39.7200 39.1740 0
MH1627986>N162 MH1627986 N162 34.532 0.013 33.2760 33.1380 0
MH4501544>N69 MH4501544 N69 38.431 0.013 32.3620 32.2860 0
N46>N163 N46 N163 37.225 0.013 33.4470 33.0330 0
N166>MH4428268 N166 MH4428268 73.113 0.013 46.1090 43.6850 0
N168>MH4428636 N168 MH4428636 42.826 0.013 44.3670 41.9960 0
N170>N171 N170 N171 37.819 0.013 35.3510 35.1620 0
N172>MH4452977 N172 MH4452977 42.054 0.013 36.7440 36.5340 0
N176>MH1632309 N176 MH1632309 53.623 0.013 30.4580 29.7530 0
N178>MH4500035 N178 MH4500035 47.787 0.013 35.1010 33.3890 0
N180>N181 N180 N181 45.062 0.013 39.4070 38.9590 0
MH4451759>N183 MH4451759 N183 4.324 0.013 35.8880 35.3830 0
N184>N59 N184 N59 45.567 0.013 41.8100 40.8000 0
MH4454490>N186 MH4454490 N186 51.044 0.013 39.7800 37.4520 0
N112>N187 N112 N187 15.300 0.013 42.0000 41.8100 0
N188>MH4447880 N188 MH4447880 26.636 0.013 41.4200 41.1890 0
MH4499417>N191 MH4499417 N191 45.113 0.013 34.2090 33.7580 0
N192>MH4453579 N192 MH4453579 46.587 0.013 35.1820 35.0260 0
N194>MH4451531 N194 MH4451531 24.941 0.013 36.9900 36.2810 0
MH4449785>N197 MH4449785 N197 66.568 0.013 37.9180 37.6900 0
N198>MH4447416 N198 MH4447416 37.746 0.013 40.3160 39.8380 0
N202>MH4453124 N202 MH4453124 11.705 0.013 40.3640 39.8500 0
MH5228371>N205 MH5228371 N205 11.309 0.013 39.7270 39.4300 0
N206>MH6153571 N206 MH6153571 6.080 0.013 33.1640 33.1510 0
N208>N209 N208 N209 45.826 0.013 38.4800 37.7060 0
N210>N211 N210 N211 65.242 0.013 31.4650 31.2780 0
N212>MH4427425 N212 MH4427425 19.983 0.013 56.4540 55.7930 0
N216>N131 N216 N131 46.295 0.013 44.1300 43.4650 0
MH7465841>N220 MH7465841 N220 13.861 0.013 42.2890 41.8100 0
N221>N222 N221 N222 31.870 0.013 45.7000 44.7460 0
MH4451971>N224 MH4451971 N224 57.698 0.013 48.5430 46.6380 0
N225>MH4450757 N225 MH4450757 66.022 0.013 47.4600 45.8090 0
N228>N229 N228 N229 20.961 0.013 33.9720 33.6270 0
N230>N231 N230 N231 32.881 0.013 46.7010 45.8720 0
N232>MH4451971 N232 MH4451971 45.291 0.013 49.7860 48.5430 0
MH4447684>N234 MH4447684 N234 15.394 0.013 45.0380 44.1500 0
MH4449173>MH4449785 MH4449173 MH4449785 98.640 0.013 38.2530 37.9180 0
N238>N239 N238 N239 7.010 0.013 35.7320 35.6720 0
N240>MH4451058 N240 MH4451058 49.067 0.013 47.4940 45.9600 0
MH4452032>MH4451840 MH4452032 MH4451840 63.581 0.013 37.4790 36.6560 0
N244>MH1790845 N244 MH1790845 34.419 0.013 48.1590 47.8780 0
N246>N247 N246 N247 43.054 0.013 32.3440 32.1280 0
N248>N61 N248 N61 45.356 0.013 47.2560 46.8090 0
MH4456553>N250 MH4456553 N250 55.795 0.013 33.2940 33.1850 0
N251>MH4449510 N251 MH4449510 60.294 0.013 51.5980 51.0980 0
MH4428713>MH4428995 MH4428713 MH4428995 79.700 0.013 40.6400 39.8480 0
N255>MH4447351 N255 MH4447351 50.902 0.013 53.1700 51.6310 0
MH4450170>N225 MH4450170 N225 62.051 0.013 49.0100 47.4600 0
MH4447880>N258 MH4447880 N258 46.510 0.013 41.1890 40.7940 0
MH4500254>N260 MH4500254 N260 31.139 0.013 34.3520 34.0420 0
N261>MH4448662 N261 MH4448662 82.382 0.013 53.1400 52.3170 0
N263>MH5228371 N263 MH5228371 16.022 0.013 40.2070 39.7270 0
MH4429357>N265 MH4429357 N265 72.735 0.013 39.2380 38.9600 0
MH5286735>N267 MH5286735 N267 6.729 0.013 50.4670 50.3630 0
N268>N269 N268 N269 44.525 0.013 43.7360 41.8540 0
N270>N271 N270 N271 115.156 0.013 34.7310 34.1560 0
N272>MH4449860 N272 MH4449860 14.709 0.013 40.7500 40.5490 0
MH5118586>N202 MH5118586 N202 44.904 0.013 42.3350 40.3640 0
N274>N275 N274 N275 26.606 0.013 56.7360 55.9740 0
N45>N276 N45 N276 90.350 0.013 32.9600 32.7340 0
N277>N278 N277 N278 35.250 0.013 43.5100 40.9100 0
N125>N279 N125 N279 45.663 0.013 50.2510 49.8690 0
N280>N281 N280 N281 47.110 0.013 51.2940 50.0420 0
MH4452919>MH4453133 MH4452919 MH4453133 55.037 0.013 36.6170 35.9160 0
MH4450449>MH4450581 MH4450449 MH4450581 76.908 0.013 37.0250 36.6410 0
N285>MH6042164 N285 MH6042164 20.791 0.013 46.1100 45.8460 0
N287>MH1625395 N287 MH1625395 31.503 0.013 35.0520 34.4310 0
MH4447397>MH5241467 MH4447397 MH5241467 61.662 0.013 38.7260 38.4400 0
N293>N294 N293 N294 33.419 0.013 43.0900 42.4230 0
N295>MH4449321 N295 MH4449321 24.505 0.013 38.7200 38.2530 0
N296>N297 N296 N297 50.817 0.013 46.8200 44.9400 0
N298>N299 N298 N299 29.082 0.013 47.6440 47.2240 0
N300>MH4455121 N300 MH4455121 47.528 0.013 34.3820 34.1450 0
MH4450219>N302 MH4450219 N302 46.318 0.013 47.5220 46.9440 0
N303>MH4428765 N303 MH4428765 64.806 0.013 42.6300 40.8810 0
N307>MH1624138 N307 MH1624138 35.847 0.013 33.5910 33.1970 0
MH4452902>MH4452980 MH4452902 MH4452980 8.469 0.013 50.0220 49.6410 0
N311>MH4451333 N311 MH4451333 20.988 0.013 51.6760 51.1280 0
MH1623974>N314 MH1623974 N314 66.773 0.013 34.3580 33.7430 0
MH4428139>MH4428320 MH4428139 MH4428320 48.862 0.013 48.0070 45.2700 0
MH1632309>MH1632398 MH1632309 MH1632398 12.189 0.013 29.7530 29.5930 0
N317>N318 N317 N318 28.858 0.013 51.3240 51.0900 0
N319>MH4447643 N319 MH4447643 56.525 0.013 37.8320 37.7320 0
N321>N322 N321 N322 48.549 0.013 34.6310 34.1460 0
MH4452081>N324 MH4452081 N324 46.561 0.013 44.1450 41.6990 0
MH4447416>MH4447726 MH4447416 MH4447726 48.920 0.013 39.8380 39.2110 0
N325>MH4429357 N325 MH4429357 46.408 0.013 39.4800 39.2380 0
MH4429013>N327 MH4429013 N327 55.340 0.013 41.1190 40.6610 0
MH4448419>N328 MH4448419 N328 50.213 0.013 38.5610 38.4450 0
MH4429468>MH4446883 MH4429468 MH4446883 51.827 0.013 38.8870 38.5570 0
N331>N332 N331 N332 26.913 0.013 35.1900 34.8930 0
MH4451058>MH4451092 MH4451058 MH4451092 9.171 0.013 45.9600 45.6750 0
MH4452217>N334 MH4452217 N334 46.717 0.013 35.4740 35.3700 0
MH4448796>N336 MH4448796 N336 19.102 0.013 51.8720 51.6500 0
N337>MH4500902 N337 MH4500902 59.440 0.013 36.2990 34.8210 0
N339>MH4454411 N339 MH4454411 37.589 0.013 35.0550 34.8670 0
N340>N341 N340 N341 45.447 0.013 43.5500 41.8860 0
MH4448753>MH4449330 MH4448753 MH4449330 64.391 0.013 53.0150 52.2100 0
N343>MH4450211 N343 MH4450211 30.787 0.013 43.0800 41.8470 0
N345>N346 N345 N346 22.831 0.013 39.5020 39.3200 0
N347>MH4453770 N347 MH4453770 75.135 0.013 51.6320 50.8780 0
MH4429527>MH4447397 MH4429527 MH4447397 84.564 0.013 39.2140 38.7260 0
N353>N354 N353 N354 36.247 0.013 46.7100 45.1350 0
MH4450975>N356 MH4450975 N356 53.901 0.013 37.5230 36.9000 0
N357>MH4451840 N357 MH4451840 33.685 0.013 37.0300 36.6930 0
MH4450207>MH4449806 MH4450207 MH4449806 91.336 0.013 39.2650 37.7410 0
MH4453740>N340 MH4453740 N340 46.752 0.013 45.1240 43.5500 0
MH4429179>N361 MH4429179 N361 54.526 0.013 38.6830 38.4200 0
N362>N363 N362 N363 24.233 0.013 36.6190 36.2810 0
MH4449083>N364 MH4449083 N364 33.065 0.013 51.3540 49.4860 0
MH4448662>N365 MH4448662 N365 61.243 0.013 52.3170 51.7050 0
N366>N367 N366 N367 46.409 0.013 35.2690 35.2240 0
MH4452527>MH4452680 MH4452527 MH4452680 46.514 0.013 35.2080 35.1600 0
N163>MH1624769 N163 MH1624769 7.446 0.013 33.0330 32.9500 0
MH4454629>N300 MH4454629 N300 46.350 0.013 34.6150 34.3820 0
N372>MH1624494 N372 MH1624494 60.084 0.013 34.6850 32.9930 0
N375>N230 N375 N230 45.117 0.013 47.8390 46.7010 0
MH4451143>MH4450975 MH4451143 MH4450975 51.640 0.013 37.8820 37.5230 0
MH4450922>MH4451207 MH4450922 MH4451207 61.688 0.013 35.8330 35.5250 0
N379>MH8963773 N379 MH8963773 60.282 0.013 39.7350 38.8320 0
N66>MH4454643 N66 MH4454643 64.045 0.013 49.7880 48.9320 0
MH4454209>N51 MH4454209 N51 59.601 0.013 48.5800 48.1810 0
MH4456108>N382 MH4456108 N382 44.564 0.013 36.5010 35.5130 0
N383>MH4454744 N383 MH4454744 12.212 0.013 35.9400 35.8060 0
MH4426971>X385 MH4426971 X385 32.617 0.013 57.4310 57.0140 0
MH4453970>N192 MH4453970 N192 22.066 0.013 35.2560 35.1820 0
N387>MH4453512 N387 MH4453512 45.914 0.013 35.9660 35.5070 0
N389>MH6153571 N389 MH6153571 43.699 0.013 34.4250 33.4560 0
MH4498454>N391 MH4498454 N391 30.117 0.013 46.3300 45.9590 0
N394>MH4429503 N394 MH4429503 48.172 0.013 38.7100 38.0340 0
MH4429645>N397 MH4429645 N397 24.118 0.013 42.1610 41.9600 0
MH4452011>MH4451871 MH4452011 MH4451871 27.543 0.013 36.0100 35.9340 0
N328>MH4449103 N328 MH4449103 39.770 0.013 38.4450 38.3540 0
N401>MH4502097 N401 MH4502097 53.017 0.013 32.5860 32.3220 0
N278>MH4499048 N278 MH4499048 26.794 0.013 40.9100 38.8540 0
N403>MH4428524 N403 MH4428524 7.052 0.013 50.9000 50.5300 0
MH4499729>N405 MH4499729 N405 19.578 0.013 40.3860 39.9230 0
N406>MH4456532 N406 MH4456532 42.231 0.013 40.6510 39.8080 0
N408>MH4454376 N408 MH4454376 37.394 0.013 34.7800 34.5930 0
MH1629281>N411 MH1629281 N411 13.587 0.013 32.8400 32.7190 0
N412>MH4499323 N412 MH4499323 44.714 0.013 42.3200 38.6310 0
N414>MH1623928 N414 MH1623928 45.421 0.013 33.0460 32.9550 0
N416>MH4428920 N416 MH4428920 30.685 0.013 41.1400 40.2440 0
MH4453124>N418 MH4453124 N418 35.114 0.013 39.8500 38.1070 0
MH4451871>N419 MH4451871 N419 34.258 0.013 35.9310 35.8080 0
N422>MH4450922 N422 MH4450922 29.226 0.013 36.1340 35.8330 0
MH4449849>MH4449785 MH4449849 MH4449785 23.293 0.013 38.1650 38.0370 0
MH4455780>N426 MH4455780 N426 9.896 0.013 45.6390 45.1450 0
MH4450757>N427 MH4450757 N427 39.462 0.013 45.8090 44.8240 0
N3>MH4454629 N3 MH4454629 3.864 0.013 34.6330 34.6150 0
MH4429019>MH7465841 MH4429019 MH7465841 41.607 0.013 43.6850 42.2890 0
N222>N148 N222 N148 44.884 0.013 44.7460 43.4030 0
N431>N432 N431 N432 43.979 0.013 35.2790 35.0950 0
N25>MH4447394 N25 MH4447394 74.157 0.013 39.6410 39.0180 0
N434>N98 N434 N98 38.621 0.013 42.7730 40.8250 0
MH1624138>MH1624769 MH1624138 MH1624769 51.786 0.013 32.9010 32.8040 0
MH4453315>MH4453553 MH4453315 MH4453553 61.735 0.013 46.6400 46.2390 0
MH4428426>MH4428245 MH4428426 MH4428245 60.352 0.013 49.2140 47.7720 0
N439>N440 N439 N440 46.015 0.013 37.2900 36.9610 0
MH4450378>MH4450554 MH4450378 MH4450554 57.656 0.013 37.4340 37.2420 0
MH1631057>MH1631514 MH1631057 MH1631514 41.286 0.013 31.1180 30.7140 0
MH6153571>N414 MH6153571 N414 52.153 0.013 33.1510 33.0460 0
N445>N446 N445 N446 2.103 0.013 36.3000 36.2740 0
N447>MH4427095 N447 MH4427095 55.567 0.013 55.2500 54.7900 0
MH4427688>N166 MH4427688 N166 77.166 0.013 48.6680 46.1090 0
N450>MH4455516 N450 MH4455516 44.677 0.013 49.6100 49.1620 0
MH1623725>N453 MH1623725 N453 49.546 0.013 36.1930 35.7000 0
N455>N456 N455 N456 51.414 0.013 38.3900 36.3570 0
N72>N178 N72 N178 42.713 0.013 36.6300 35.1010 0
N457>N287 N457 N287 5.957 0.013 35.1700 35.0520 0
N458>MH4456551 N458 MH4456551 39.704 0.013 35.2120 34.8210 0
MH4428995>N460 MH4428995 N460 60.895 0.013 39.8480 39.5400 0
N461>N416 N461 N416 18.013 0.013 42.6370 41.1400 0
N341>MH4454490 N341 MH4454490 57.508 0.013 41.8860 39.7800 0
N432>MH4453489 N432 MH4453489 19.788 0.013 35.0950 35.0300 0
MH4449436>N464 MH4449436 N464 53.646 0.013 41.7760 40.4480 0
N465>MH4448509 N465 MH4448509 47.368 0.013 39.1760 38.8630 0
MH4428920>N466 MH4428920 N466 44.406 0.013 40.2440 39.4900 0
N467>N468 N467 N468 9.713 0.013 57.6230 55.8000 0
MH4455808>N470 MH4455808 N470 48.928 0.013 47.8610 47.1690 0
N471>N472 N471 N472 61.259 0.013 46.5800 46.1690 0
N473>MH1623974 N473 MH1623974 67.172 0.013 35.0200 34.3580 0
N474>MH4450920 N474 MH4450920 16.339 0.013 50.7320 50.6410 0
MH4451516>N477 MH4451516 N477 46.313 0.013 42.8700 41.4220 0
MH4452994>N431 MH4452994 N431 46.438 0.013 35.5070 35.2790 0
MH4452189>N366 MH4452189 N366 22.139 0.013 35.2910 35.2690 0
MH4449882>MH4449704 MH4449882 MH4449704 35.268 0.013 39.7700 39.7530 0
MH1629073>N157 MH1629073 N157 44.293 0.013 33.3610 32.6140 0
MH1623928>MH1624138 MH1623928 MH1624138 26.754 0.013 32.9550 32.9010 0
N482>MH4452721 N482 MH4452721 59.854 0.013 39.4280 36.2840 0
N361>MH4429503 N361 MH4429503 59.775 0.013 38.4200 38.1100 0
N483>MH4429320 N483 MH4429320 9.213 0.013 41.2140 41.1220 0
MH4451945>N208 MH4451945 N208 61.197 0.013 39.4850 38.4800 0
N486>N487 N486 N487 2.237 0.013 37.4770 37.4210 0
N488>N489 N488 N489 10.430 0.013 51.6210 51.5100 0
MH4453489>MH4453579 MH4453489 MH4453579 27.391 0.013 35.0300 34.9430 0
MH4427095>N490 MH4427095 N490 68.280 0.013 54.7900 54.2200 0
N491>N492 N491 N492 22.023 0.013 53.9670 52.8100 0
MH4452809>MH4452632 MH4452809 MH4452632 36.272 0.013 36.7720 36.5900 0
N498>MH5286735 N498 MH5286735 16.859 0.013 50.7270 50.4670 0
N499>MH4456553 N499 MH4456553 64.471 0.013 33.4230 33.2940 0
MH4453981>N501 MH4453981 N501 38.738 0.013 40.4300 39.4630 0
N354>N108 N354 N108 37.925 0.013 45.1350 43.4820 0
MH4456532>N71 MH4456532 N71 42.971 0.013 39.7320 38.2300 0
N505>MH4450207 N505 MH4450207 35.533 0.013 39.6250 39.4900 0
MH4320104>N507 MH4320104 N507 98.828 0.013 46.0050 45.4590 0
MH4447351>N510 MH4447351 N510 55.748 0.013 51.6310 49.9400 0
N336>N511 N336 N511 43.379 0.013 51.6500 51.1450 0
MH4426673>N515 MH4426673 N515 46.420 0.013 59.1410 58.3000 0
MH4450077>N517 MH4450077 N517 78.001 0.013 45.0250 43.0940 0
MH4428836>MH4429107 MH4428836 MH4429107 96.114 0.013 40.4720 39.7560 0
MH4453553>MH4453740 MH4453553 MH4453740 36.471 0.013 46.2390 45.1240 0
N522>MH4450170 N522 MH4450170 61.495 0.013 49.7340 49.0100 0
MH4429656>MH4447643 MH4429656 MH4447643 84.851 0.013 38.3930 37.8890 0
MH4450617>N343 MH4450617 N343 80.237 0.013 44.3040 43.0800 0
MH4448392>MH4448813 MH4448392 MH4448813 58.548 0.013 42.7640 42.1670 0
MH4449913>N530 MH4449913 N530 64.137 0.013 37.2840 37.1670 0
MH4427309>N85 MH4427309 N85 60.389 0.013 54.8070 51.7970 0
N532>N533 N532 N533 49.357 0.013 35.0700 34.6180 0
N534>MH1625316 N534 MH1625316 20.460 0.013 32.2400 32.1460 0
MH4450137>N536 MH4450137 N536 46.289 0.013 37.1650 37.0100 0
MH4429584>MH4429544 MH4429584 MH4429544 14.067 0.013 38.8830 38.7030 0
N426>N100 N426 N100 38.660 0.013 45.1450 43.3830 0
MH4452721>MH4452946 MH4452721 MH4452946 45.364 0.013 36.2840 36.0620 0
N542>MH4428797 N542 MH4428797 23.936 0.013 45.2850 44.0810 0
N544>MH4451468 N544 MH4451468 62.630 0.013 39.3690 35.8790 0
MH4450391>MH4450531 MH4450391 MH4450531 31.303 0.013 36.8420 36.5830 0
N1>MH1629194 N1 MH1629194 50.653 0.013 31.8100 31.6670 0
N62>MH6042164 N62 MH6042164 51.111 0.013 46.3560 45.8460 0
N549>N307 N549 N307 39.159 0.013 34.0210 33.5910 0
MH4453579>N550 MH4453579 N550 51.805 0.013 34.8730 34.7440 0
MH4449977>N552 MH4449977 N552 55.091 0.013 41.0850 40.3940 0
N553>N554 N553 N554 46.729 0.013 48.1400 45.4300 0
MH1625395>N549 MH1625395 N549 37.269 0.013 34.4310 34.0210 0
N557>MH4454125 N557 MH4454125 32.774 0.013 35.6190 35.3450 0
N559>N560 N559 N560 50.582 0.013 35.2700 34.7620 0
N561>MH1629281 N561 MH1629281 30.745 0.013 32.9630 32.8400 0
N562>N563 N562 N563 71.905 0.013 42.8700 41.4300 0
N564>MH4453047 N564 MH4453047 15.029 0.013 49.7600 49.4520 0
N517>MH4449436 N517 MH4449436 53.228 0.013 43.0940 41.7760 0
N566>MH4428268 N566 MH4428268 36.641 0.013 45.7600 43.7550 0
N567>MH4455813 N567 MH4455813 56.693 0.013 48.6120 48.0990 0
N569>MH4499632 N569 MH4499632 30.151 0.013 44.9100 44.7400 0
MH4451576>N573 MH4451576 N573 57.616 0.013 41.8590 40.7150 0
N574>MH4499417 N574 MH4499417 47.867 0.013 36.5810 34.2090 0
MH4452980>N576 MH4452980 N576 1.159 0.013 49.6410 49.5550 0
N577>MH4452527 N577 MH4452527 73.554 0.013 35.9700 35.3610 0
N578>MH4447394 N578 MH4447394 50.869 0.013 39.2680 39.0180 0
N581>MH4499729 N581 MH4499729 28.759 0.013 41.4780 41.1140 0
N582>MH4450193 N582 MH4450193 40.326 0.013 38.6500 37.6440 0
N511>MH4449635 N511 MH4449635 61.681 0.013 51.1450 50.4270 0
N585>MH4454657 N585 MH4454657 47.867 0.013 50.2150 49.5070 0
N587>MH4450757 N587 MH4450757 45.824 0.013 46.3810 45.8090 0
MH4428800>MH4429035 MH4428800 MH4429035 78.434 0.013 45.2490 43.2980 0
MH6042164>N589 MH6042164 N589 53.739 0.013 45.8460 44.0520 0
N302>N587 N302 N587 46.073 0.013 46.9440 46.3810 0
N592>N268 N592 N268 44.062 0.013 45.5990 43.7360 0
MH4447369>N593 MH4447369 N593 18.266 0.013 53.7530 53.5710 0
N477>MH4452071 N477 MH4452071 57.181 0.013 41.4220 39.6340 0
N191>N595 N191 N595 32.913 0.013 33.7580 33.4290 0
N596>MH4451516 N596 MH4451516 43.525 0.013 44.2300 42.8700 0
N560>N145 N560 N145 24.385 0.013 34.7620 34.5180 0
N597>N246 N597 N246 44.958 0.013 32.5690 32.3440 0
MH4449118>MH4448345 MH4449118 MH4448345 81.082 0.013 39.1950 38.6590 0
MH4447394>N599 MH4447394 N599 64.443 0.013 38.9420 38.7660 0
N405>N600 N405 N600 46.626 0.013 39.9230 38.9000 0
MH4454876>N375 MH4454876 N375 12.078 0.013 48.1410 47.8390 0
N231>MH4455429 N231 MH4455429 31.188 0.013 45.8720 45.0930 0
MH4450554>MH4450449 MH4450554 MH4450449 30.944 0.013 37.2050 37.1010 0
MH4448762>N605 MH4448762 N605 63.326 0.013 38.1040 37.8160 0
MH1632398>OUT MH1632398 OUT 48.281 0.013 29.5930 29.1510 0
N607>MH4454901 N607 MH4454901 19.260 0.013 46.2230 44.8280 0
N609>N610 N609 N610 37.107 0.013 34.4460 34.0730 0
N15>N611 N15 N611 28.223 0.013 35.6120 35.2950 0
N612>MH1624202 N612 MH1624202 29.863 0.013 33.1090 32.6880 0
N614>MH1629073 N614 MH1629073 32.612 0.013 33.9030 33.3610 0
N615>N585 N615 N585 44.278 0.013 50.8700 50.2150 0
N31>MH4454901 N31 MH4454901 15.497 0.013 42.8290 42.3180 0
MH4429503>N319 MH4429503 N319 72.008 0.013 37.9580 37.8320 0
MH4428524>N553 MH4428524 N553 40.525 0.013 50.5300 48.1400 0
N616>MH4454195 N616 MH4454195 13.570 0.013 35.3470 35.3130 0
MH4453512>N618 MH4453512 N618 47.813 0.013 35.4310 35.1920 0
N530>MH4450449 N530 MH4450449 56.847 0.013 37.1670 37.0620 0
N619>MH4499632 N619 MH4499632 45.725 0.013 45.3440 44.7730 0
N260>N620 N260 N620 30.194 0.013 34.0420 33.7410 0
N211>MH1631057 N211 MH1631057 56.022 0.013 31.2780 31.1180 0
N621>MH1626450 N621 MH1626450 30.971 0.013 33.8900 33.2880 0
N623>MH1626578 N623 MH1626578 22.310 0.013 33.4400 33.2210 0
N625>N626 N625 N626 47.828 0.013 50.5610 49.7600 0
MH4429411>MH4429136 MH4429411 MH4429136 85.836 0.013 42.2010 40.4850 0
N276>MH4501851 N276 MH4501851 52.396 0.013 32.7340 32.6030 0
N630>N631 N630 N631 19.792 0.013 34.8400 34.7260 0
N632>MH4452538 N632 MH4452538 43.341 0.013 49.3530 47.9030 0
N633>N232 N633 N232 42.435 0.013 50.9500 49.7860 0
N634>N488 N634 N488 1.658 0.013 51.6890 51.6210 0
N554>MH4429019 N554 MH4429019 25.211 0.013 45.4300 43.9100 0
MH1790845>MH4456372 MH1790845 MH4456372 130.964 0.013 47.8780 47.2300 0
MH5216010>N353 MH5216010 N353 20.390 0.013 47.5970 46.7100 0
N640>N8 N640 N8 32.342 0.013 41.7900 40.9700 0
MH4498407>MH4498454 MH4498407 MH4498454 4.426 0.013 46.4130 46.3300 0
N324>N482 N324 N482 44.550 0.013 41.6990 39.4280 0
N642>MH4453748 N642 MH4453748 7.177 0.013 35.3700 35.0670 0
N644>MH4429136 N644 MH4429136 0.753 0.013 40.7180 40.4480 0
N645>N339 N645 N339 39.350 0.013 35.2500 35.0550 0
N124>MH4429312 N124 MH4429312 52.254 0.013 41.7690 40.3170 0
N646>MH4452632 N646 MH4452632 53.022 0.013 37.1400 36.7660 0
N647>MH4427312 N647 MH4427312 46.601 0.013 55.7900 54.0540 0
N649>MH4450922 N649 MH4450922 77.216 0.013 36.2560 35.8700 0
MH4449103>MH4449173 MH4449103 MH4449173 9.797 0.013 38.3540 38.2530 0
MH4446883>MH4429656 MH4446883 MH4429656 23.205 0.013 38.5510 38.3930 0
N318>N83 N318 N83 51.250 0.013 51.0900 50.6620 0
N650>N28 N650 N28 43.469 0.013 42.3830 39.5400 0
N552>MH4449704 N552 MH4449704 54.014 0.013 40.3940 39.7160 0
MH4455909>N499 MH4455909 N499 65.197 0.013 33.5530 33.4230 0
MH4451113>N652 MH4451113 N652 42.107 0.013 50.4420 49.1440 0
MH4450100>MH4450180 MH4450100 MH4450180 19.559 0.013 40.3200 39.0120 0
N655>N656 N655 N656 39.382 0.013 43.3170 42.3370 0
N599>MH4448345 N599 MH4448345 39.778 0.013 38.7660 38.6590 0
MH4429323>N658 MH4429323 N658 68.919 0.013 53.3170 52.6200 0
N659>N660 N659 N660 39.652 0.013 44.0800 42.4200 0
MH4449920>N137 MH4449920 N137 16.085 0.013 49.3050 48.9030 0
N662>MH1790382 N662 MH1790382 66.929 0.013 48.9010 48.4090 0
N664>N665 N664 N665 23.302 0.013 47.4510 47.1500 0
N666>MH4455602 N666 MH4455602 48.057 0.013 47.9700 47.1630 0
N668>MH4452902 N668 MH4452902 0.950 0.013 50.0690 50.0220 0
MH4429471>MH4447128 MH4429471 MH4447128 73.905 0.013 40.3840 39.7560 0
N271>MH4455121 N271 MH4455121 2.604 0.013 34.1560 34.1430 0
N670>MH4451886 N670 MH4451886 53.358 0.013 36.0600 35.5290 0
N672>MH4499417 N672 MH4499417 47.950 0.013 35.8940 34.2850 0
N673>N674 N673 N674 46.104 0.013 45.4400 44.7820 0
N675>MH4447394 N675 MH4447394 55.633 0.013 39.4750 39.0000 0
N676>MH4447128 N676 MH4447128 23.650 0.013 40.0100 39.7200 0
MH4501851>MH4501866 MH4501851 MH4501866 5.204 0.013 32.6030 32.5900 0
N677>MH4450802 N677 MH4450802 69.877 0.013 52.0500 51.0000 0
N281>MH4449920 N281 MH4449920 29.535 0.013 50.0420 49.3050 0
MH4447506>N261 MH4447506 N261 39.571 0.013 53.5360 53.1400 0
MH4428245>MH4428606 MH4428245 MH4428606 101.747 0.013 47.7450 43.5630 0
N43>MH4429499 N43 MH4429499 65.831 0.013 39.9970 39.5520 0
MH4447643>MH4447691 MH4447643 MH4447691 4.952 0.013 37.7320 37.7240 0
N683>N280 N683 N280 18.249 0.013 51.7780 51.2940 0
MH4446824>N180 MH4446824 N180 52.257 0.013 39.9270 39.4070 0
MH4447602>MH4429645 MH4447602 MH4429645 69.856 0.013 42.6580 42.1980 0
MH4453770>N615 MH4453770 N615 45.773 0.013 50.8780 50.8700 0
N489>MH4449485 N489 MH4449485 36.630 0.013 51.5100 51.1430 0
N685>N686 N685 N686 17.931 0.013 49.9840 49.6310 0
MH4429499>N578 MH4429499 N578 56.364 0.013 39.5520 39.2680 0
N687>N688 N687 N688 17.287 0.013 43.6600 43.0000 0
N150>MH4500902 N150 MH4500902 36.825 0.013 35.9610 34.7450 0
MH5233531>N690 MH5233531 N690 14.237 0.013 35.2190 35.0770 0
N691>MH4448762 N691 MH4448762 68.216 0.013 38.4110 38.1040 0
N652>N692 N652 N692 54.292 0.013 49.1440 47.4710 0
N693>N675 N693 N675 46.226 0.013 39.8700 39.4750 0
MH4456468>N694 MH4456468 N694 31.132 0.013 36.6470 36.3420 0
N695>MH4428146 N695 MH4428146 48.278 0.013 47.8700 45.0350 0
N698>N699 N698 N699 37.979 0.013 51.7510 51.3680 0
N700>MH4428096 N700 MH4428096 67.614 0.013 52.4500 51.4820 0
N702>MH4450167 N702 MH4450167 38.635 0.013 40.2800 39.7860 0
N704>N705 N704 N705 35.653 0.013 36.7000 36.0890 0
N706>MH5118586 N706 MH5118586 74.121 0.013 46.0810 43.6420 0
MH1630330>MH1630926 MH1630330 MH1630926 89.253 0.013 31.3470 31.0120 0
MH4500043>N434 MH4500043 N434 30.479 0.013 44.3130 42.7730 0
N229>N128 N229 N128 43.265 0.013 33.6270 32.9140 0
MH4454993>MH5233531 MH4454993 MH5233531 32.796 0.013 35.5440 35.2190 0
MH4455762>N270 MH4455762 N270 4.908 0.013 35.4510 34.7310 0
N711>MH4448853 N711 MH4448853 65.359 0.013 38.5360 38.3510 0
MH1626450>MH4501544 MH1626450 MH4501544 39.952 0.013 33.2880 32.5140 0
N713>MH4456551 N713 MH4456551 15.121 0.013 35.1180 34.8210 0
N714>MH4454490 N714 MH4454490 48.552 0.013 41.3890 39.7800 0
N715>MH4454195 N715 MH4454195 27.874 0.013 35.6600 35.3880 0
N716>MH4450077 N716 MH4450077 82.984 0.013 47.0800 45.0250 0
MH4453133>N717 MH4453133 N717 4.896 0.013 35.8390 35.8150 0
N411>MH1629888 N411 MH1629888 48.524 0.013 32.7190 32.2850 0
N719>MH1626578 N719 MH1626578 40.158 0.013 33.4230 33.2210 0
N720>N18 N720 N18 18.830 0.013 50.2580 50.0790 0
MH4427714>N722 MH4427714 N722 60.769 0.013 49.7260 46.6600 0
N723>MH4450314 N723 MH4450314 7.715 0.013 51.8910 51.5000 0
MH4450332>MH4450167 MH4450332 MH4450167 32.596 0.013 38.7810 38.6160 0
N725>MH4498407 N725 MH4498407 6.387 0.013 46.5150 46.4130 0
N717>N53 N717 N53 39.603 0.013 35.8150 35.6170 0
N453>N458 N453 N458 49.472 0.013 35.7000 35.2120 0
N492>MH4427714 N492 MH4427714 58.076 0.013 52.8100 49.7260 0
N726>N727 N726 N727 52.455 0.013 57.6600 57.1400 0
N728>MH1623725 N728 MH1623725 44.141 0.013 36.6300 36.1930 0
MH4450167>MH4449849 MH4450167 MH4449849 76.221 0.013 38.6160 38.1650 0
N729>MH4452952 N729 MH4452952 12.656 0.013 50.1070 49.9790 0
N247>MH1629194 N247 MH1629194 46.588 0.013 32.1280 31.8950 0
N250>N206 N250 N206 10.232 0.013 33.1850 33.1640 0
N734>N735 N734 N735 44.783 0.013 38.3700 37.4760 0
MH4449510>N625 MH4449510 N625 30.380 0.013 51.0700 50.5610 0
N736>MH4449913 N736 MH4449913 51.989 0.013 37.8210 37.4700 0
N737>N738 N737 N738 35.786 0.013 38.2160 37.9510 0
MH4450581>N649 MH4450581 N649 76.126 0.013 36.6410 36.2560 0
N472>MH4455780 N472 MH4455780 49.628 0.013 46.1690 45.8360 0
N741>MH4426188 N741 MH4426188 44.267 0.013 58.8770 58.1780 0
N327>MH4429312 N327 MH4429312 46.086 0.013 40.6610 40.2800 0
N515>MH4426979 N515 MH4426979 45.708 0.013 58.3000 57.4620 0
N745>MH4455191 N745 MH4455191 48.387 0.013 47.8890 47.5650 0
MH4454312>N748 MH4454312 N748 35.520 0.013 35.7160 35.2730 0
N749>MH4455121 N749 MH4455121 55.302 0.013 34.2370 34.1450 0
N750>N700 N750 N700 42.330 0.013 53.0700 52.4500 0
N751>MH4427849 N751 MH4427849 61.375 0.013 52.3630 50.2630 0
N753>MH4452994 N753 MH4452994 59.650 0.013 36.7400 35.5070 0
N754>N34 N754 N34 45.101 0.013 46.6850 46.4620 0
N755>MH4453970 N755 MH4453970 23.673 0.013 35.2670 35.2560 0
N756>MH1625959 N756 MH1625959 19.061 0.013 31.9590 31.8710 0
N427>N758 N427 N758 45.968 0.013 44.8240 43.6710 0
N275>MH4427309 N275 MH4427309 40.734 0.013 55.9740 54.8070 0
N762>MH4447369 N762 MH4447369 50.521 0.013 54.2830 53.7530 0
MH5241467>N691 MH5241467 N691 7.077 0.013 38.4400 38.4110 0
MH4452977>N763 MH4452977 N763 50.131 0.013 36.5340 36.2820 0
N764>MH4429323 N764 MH4429323 78.416 0.013 54.2200 53.3170 0
MH4498291>MH4498454 MH4498291 MH4498454 66.388 0.013 48.0620 46.3670 0
MH4453748>N766 MH4453748 N766 3.377 0.013 35.0670 35.0500 0
MH5164627>N630 MH5164627 N630 24.162 0.013 34.9770 34.8400 0
MH4452724>N768 MH4452724 N768 45.797 0.013 40.7190 40.3310 0
MH4453850>MH4454009 MH4453850 MH4454009 32.217 0.013 35.8590 35.6990 0
N234>N771 N234 N771 51.178 0.013 44.1500 42.1000 0
N772>MH4453031 N772 MH4453031 2.628 0.013 36.8310 36.7900 0
MH1626189>N47 MH1626189 N47 52.980 0.013 32.5140 32.4090 0
N777>N778 N777 N778 28.612 0.013 38.6100 38.0560 0
N779>MH4428606 N779 MH4428606 0.677 0.013 44.7120 43.6000 0
MH4456551>N609 MH4456551 N609 37.504 0.013 34.8210 34.4460 0
N205>N780 N205 N780 31.005 0.013 39.4300 38.6160 0
N781>MH4449118 N781 MH4449118 76.188 0.013 40.7400 39.2320 0
N391>MH4499059 N391 MH4499059 26.250 0.013 45.9590 45.6360 0
N783>N337 N783 N337 49.137 0.013 37.5200 36.2990 0
MH4451673>MH4451871 MH4451673 MH4451871 84.999 0.013 36.4000 35.9310 0
N460>MH4429357 N460 MH4429357 60.889 0.013 39.5400 39.2380 0
MH4454901>N714 MH4454901 N714 28.053 0.013 42.3180 41.3890 0
N363>N446 N363 N446 0.501 0.013 36.2810 36.2740 0
N787>MH4451945 N787 MH4451945 61.543 0.013 41.0250 39.4850 0
N788>MH5241467 N788 MH5241467 33.555 0.013 38.7340 38.4700 0
N789>N670 N789 N670 43.596 0.013 36.5470 36.0600 0
MH4447346>N198 MH4447346 N198 14.565 0.013 40.5000 40.3160 0
MH4455602>MH4455780 MH4455602 MH4455780 25.763 0.013 47.1630 45.6390 0
N501>N791 N501 N791 34.965 0.013 39.4630 38.5920 0
MH4450314>N792 MH4450314 N792 26.058 0.013 51.5000 50.6700 0
MH4427659>X570 MH4427659 X570 26.877 0.013 54.0730 53.3030 0
MH4454376>N794 MH4454376 N794 59.804 0.013 34.4400 34.3420 0
N795>MH4447506 N795 MH4447506 39.668 0.013 54.1000 53.5360 0
MH4450193>MH4450378 MH4450193 MH4450378 40.460 0.013 37.5680 37.4340 0
N796>MH4499059 N796 MH4499059 31.563 0.013 46.5500 45.6720 0
N563>MH4428836 N563 MH4428836 47.748 0.013 41.4300 40.5090 0
MH4428026>N566 MH4428026 N566 42.614 0.013 48.0920 45.7600 0
MH1626578>N89 MH1626578 N89 42.115 0.013 33.2210 33.0120 0
N269>MH4456532 N269 MH4456532 50.953 0.013 41.8540 39.7320 0
N279>MH4454657 N279 MH4454657 43.693 0.013 49.8690 49.5070 0
MH4453098>N798 MH4453098 N798 60.499 0.013 35.0560 34.9960 0
N799>MH4428836 N799 MH4428836 62.438 0.013 40.9770 40.6380 0
MH4502097>MH4502186 MH4502097 MH4502186 15.158 0.013 32.1700 32.1270 0
MH4499323>N783 MH4499323 N783 44.694 0.013 38.6310 37.5200 0
N778>MH4456108 N778 MH4456108 6.022 0.013 38.0560 37.9360 0
N801>N612 N801 N612 51.852 0.013 33.8400 33.1090 0
N804>MH1626189 N804 MH1626189 67.162 0.013 32.6520 32.5140 0
MH4500625>N806 MH4500625 N806 61.011 0.013 33.4220 33.0850 0
MH4499048>N807 MH4499048 N807 46.748 0.013 38.8540 37.2850 0
N808>N809 N808 N809 26.739 0.013 35.1100 34.8010 0
N611>MH4454411 N611 MH4454411 31.759 0.013 35.2950 34.9430 0
MH4429420>N296 MH4429420 N296 20.808 0.013 47.5930 46.8200 0
MH4449330>N683 MH4449330 N683 15.842 0.013 52.1740 51.7780 0
N811>MH4451143 N811 MH4451143 10.527 0.013 38.5400 37.9180 0
MH4455516>N567 MH4455516 N567 60.818 0.013 49.1620 48.6120 0
N294>N814 N294 N814 38.915 0.013 42.4230 41.6350 0
MH4455429>N650 MH4455429 N650 41.450 0.013 45.0930 42.3830 0
N815>MH4452081 N815 MH4452081 44.696 0.013 46.0060 44.1450 0
MH4454009>MH4454195 MH4454009 MH4454195 39.278 0.013 35.6990 35.5050 0
N816>MH4428797 N816 MH4428797 54.507 0.013 46.5250 44.0450 0
N817>MH4450396 N817 MH4450396 40.112 0.013 46.6600 46.0930 0
MH4447691>N819 MH4447691 N819 40.333 0.013 37.7240 37.6680 0
MH4499059>N619 MH4499059 N619 23.794 0.013 45.6360 45.3440 0
MH4499406>MH4499729 MH4499406 MH4499729 26.280 0.013 40.9300 40.3860 0
N101>MH4456777 N101 MH4456777 44.382 0.013 40.9800 38.7690 0
N792>N822 N792 N822 51.630 0.013 50.6700 49.0560 0
N823>MH4428638 N823 MH4428638 48.286 0.013 44.9900 44.6610 0
MH4428426>N816 MH4428426 N816 59.115 0.013 49.2140 46.5250 0
MH8707824>N827 MH8707824 N827 14.680 0.013 36.3270 36.0390 0
MH4452397>N632 MH4452397 N632 6.104 0.013 49.6070 49.3530 0
N828>N408 N828 N408 38.147 0.013 34.9700 34.7800 0
N829>MH4449882 N829 MH4449882 45.055 0.013 40.3400 39.7700 0
N830>MH4454398 N830 MH4454398 11.222 0.013 48.0700 47.7120 0
N832>MH4452952 N832 MH4452952 7.938 0.013 50.3180 49.9670 0
MH4450211>N833 MH4450211 N833 16.151 0.013 41.8470 41.2020 0
N834>MH4453185 N834 MH4453185 40.840 0.013 35.8400 35.4310 0
N836>MH4452721 N836 MH4452721 44.143 0.013 37.2410 36.8000 0
N837>N616 N837 N616 11.810 0.013 35.3770 35.3470 0
N838>N772 N838 N772 21.894 0.013 37.1700 36.8310 0
N839>N840 N839 N840 1.662 0.013 34.6420 34.6240 0
N224>N706 N224 N706 22.155 0.013 46.6380 46.0810 0
N674>MH4450847 N674 MH4450847 30.391 0.013 44.7820 44.3490 0
MH4429544>MH4429656 MH4429544 MH4429656 33.529 0.013 38.6670 38.4290 0
N842>MH4428583 N842 MH4428583 59.456 0.013 42.9700 40.9720 0
N845>MH4455943 N845 MH4455943 61.222 0.013 48.3300 47.7180 0
MH4453047>N49 MH4453047 N49 60.766 0.013 49.4520 47.7160 0
N768>N847 N768 N847 44.100 0.013 40.3310 39.9690 0
MH4426728>N447 MH4426728 N447 56.496 0.013 55.7340 55.2500 0
N849>MH4450180 N849 MH4450180 20.482 0.013 39.2410 38.9760 0
MH4427425>MH4427741 MH4427425 MH4427741 85.257 0.013 55.7930 52.9730 0
N763>N851 N763 N851 32.550 0.013 36.2820 36.1190 0
MH1790382>N244 MH1790382 N244 33.980 0.013 48.4090 48.1590 0
N158>N210 N158 N210 23.796 0.013 31.5330 31.4650 0
MH4451531>MH4451759 MH4451531 MH4451759 29.642 0.013 36.2810 35.8880 0
N419>MH4451207 N419 MH4451207 60.575 0.013 35.8080 35.5860 0
MH4429320>N853 MH4429320 N853 22.488 0.013 41.1220 40.8500 0
N332>MH1627084 N332 MH1627084 62.994 0.013 34.8930 34.2060 0
N854>N228 N854 N228 15.659 0.013 34.2300 33.9720 0
N855>MH4500254 N855 MH4500254 45.587 0.013 35.2500 34.3520 0
N533>MH1623974 N533 MH1623974 28.444 0.013 34.6180 34.3580 0
MH4449485>MH4449510 MH4449485 MH4449510 4.391 0.013 51.1430 51.0990 0
N209>MH4452541 N209 MH4452541 24.786 0.013 37.7060 37.2870 0
N64>MH4453098 N64 MH4453098 65.521 0.013 36.2620 35.1690 0
N536>MH4450391 N536 MH4450391 50.456 0.013 37.0100 36.8420 0
MH4454640>N745 MH4454640 N745 31.252 0.013 48.0990 47.8890 0
N857>MH4427688 N857 MH4427688 54.686 0.013 51.3800 48.6680 0
N858>MH4426728 N858 MH4426728 6.015 0.013 55.8200 55.7700 0
MH1624494>N534 MH1624494 N534 53.613 0.013 32.5350 32.2400 0
N738>MH4449796 N738 MH4449796 49.786 0.013 37.9510 37.5830 0
N862>N863 N862 N863 13.018 0.013 41.6250 41.4950 0
N865>N753 N865 N753 48.534 0.013 37.7480 36.7400 0
MH4450269>N133 MH4450269 N133 19.957 0.013 46.1590 45.3860 0
MH4447355>MH4448029 MH4447355 MH4448029 76.353 0.013 54.5950 53.6360 0
N869>N865 N869 N865 44.537 0.013 38.5860 37.7480 0
MH4452680>MH4453098 MH4452680 MH4453098 105.562 0.013 35.1600 35.0560 0
MH4428268>N870 MH4428268 N870 51.926 0.013 43.6850 42.8120 0
N871>N401 N871 N401 55.486 0.013 32.8630 32.5860 0
N873>N874 N873 N874 35.766 0.013 37.9800 37.6230 0
MH4428146>N842 MH4428146 N842 62.189 0.013 45.0350 42.9700 0
MH4428800>MH4428606 MH4428800 MH4428606 56.191 0.013 45.2490 43.5870 0
N694>N875 N694 N875 29.473 0.013 36.3420 36.0400 0
MH4452462>N877 MH4452462 N877 52.051 0.013 36.0380 35.7790 0
N878>MH4448626 N878 MH4448626 60.147 0.013 52.9610 52.3600 0
MH1629194>N158 MH1629194 N158 46.494 0.013 31.6670 31.5330 0
N97>MH4449785 N97 MH4449785 47.344 0.013 38.1700 38.0370 0
N722>MH4428137 N722 MH4428137 44.645 0.013 46.6600 44.4290 0
MH1630702>MH1630330 MH1630702 MH1630330 31.387 0.013 31.6660 31.3770 0
MH4451823>N183 MH4451823 N183 9.671 0.013 34.6690 34.6210 0
N886>MH4447684 N886 MH4447684 30.908 0.013 46.3820 45.0380 0
N887>MH4501201 N887 MH4501201 48.392 0.013 33.8630 33.0410 0
N116>N888 N116 N888 49.732 0.013 32.5090 32.3850 0
N890>MH4454640 N890 MH4454640 10.621 0.013 48.2720 48.1350 0
MH4454116>MH4454376 MH4454116 MH4454376 62.663 0.013 34.5960 34.4400 0
MH4428765>MH4428713 MH4428765 MH4428713 16.752 0.013 40.8400 40.6770 0
MH4428797>MH4429013 MH4428797 MH4429013 69.372 0.013 44.0450 41.1650 0
N892>MH4449083 N892 MH4449083 8.669 0.013 51.4700 51.3540 0
MH1627682>N597 MH1627682 N597 48.044 0.013 32.8100 32.5690 0
N893>N804 N893 N804 58.116 0.013 32.7710 32.6520 0
MH4451092>N596 MH4451092 N596 46.310 0.013 45.6750 44.2300 0
N894>MH4451468 N894 MH4451468 31.040 0.013 35.9100 35.8790 0
N197>MH4450193 N197 MH4450193 36.753 0.013 37.6900 37.5680 0
N895>MH4452110 N895 MH4452110 36.900 0.013 38.0000 37.7760 0
N658>MH4428968 N658 MH4428968 67.001 0.013 52.6200 51.9600 0
N122>MH4500043 N122 MH4500043 53.140 0.013 44.6040 44.3130 0
N322>MH4455909 N322 MH4455909 44.050 0.013 34.1460 33.7060 0
N863>MH4428836 N863 MH4428836 40.799 0.013 41.4950 40.4720 0
N595>MH4500689 N595 MH4500689 37.242 0.013 33.4290 33.0570 0
N899>N666 N899 N666 44.720 0.013 48.7350 47.9700 0
MH4452952>MH4452980 MH4452952 MH4452980 5.731 0.013 49.9670 49.9180 0
MH4452110>MH4452032 MH4452110 MH4452032 24.645 0.013 37.7760 37.6520 0
MH4500902>N887 MH4500902 N887 51.963 0.013 34.7450 33.8630 0
N382>N389 N382 N389 48.939 0.013 35.5130 34.4250 0
MH1623436>N372 MH1623436 N372 55.423 0.013 36.2450 34.6850 0
N142>N139 N142 N139 16.345 0.013 38.5140 38.4020 0
MH4427741>N113 MH4427741 N113 33.890 0.013 52.3900 50.4980 0
MH4454395>MH4454718 MH4454395 MH4454718 71.297 0.013 49.2260 48.6300 0
MH4428096>N143 MH4428096 N143 73.164 0.013 51.4820 51.1300 0
MH4426673>X902 MH4426673 X902 64.239 0.013 59.1470 58.3310 0
N903>MH4500625 N903 MH4500625 51.840 0.013 33.8400 33.4220 0
MH1630926>MH1631514 MH1630926 MH1631514 90.523 0.013 31.0120 30.7910 0
N690>N321 N690 N321 44.653 0.013 35.0770 34.6310 0
N699>MH4449485 N699 MH4449485 22.576 0.013 51.3680 51.1430 0
MH4451840>MH4451673 MH4451840 MH4451673 51.485 0.013 36.6560 36.4000 0
MH4449866>N582 MH4449866 N582 32.358 0.013 39.4570 38.6500 0
N771>MH4446824 N771 MH4446824 54.323 0.013 42.1000 39.9270 0
N468>MH4427312 N468 MH4427312 53.750 0.013 55.8000 54.0180 0
MH4449011>N906 MH4449011 N906 61.017 0.013 37.5310 37.4200 0
MH4426971>N274 MH4426971 N274 24.279 0.013 57.4310 56.7360 0
MH4452760>N908 MH4452760 N908 7.591 0.013 37.4370 36.6800 0
N909>MH4447668 N909 MH4447668 11.816 0.013 39.4110 39.3200 0
N365>MH4449510 N365 MH4449510 60.824 0.013 51.7050 51.0980 0
N154>MH1625316 N154 MH1625316 46.830 0.013 32.7400 32.1570 0
N853>MH4429471 N853 MH4429471 36.315 0.013 40.8500 40.3840 0
N618>N828 N618 N828 44.743 0.013 35.1920 34.9700 0
N258>MH4448929 N258 MH4448929 61.286 0.013 40.7940 40.2960 0
N660>MH4428713 N660 MH4428713 42.330 0.013 42.4200 40.6400 0
N912>N913 N912 N913 16.842 0.013 49.0970 48.3530 0
N914>MH4429107 N914 MH4429107 72.410 0.013 40.3500 39.7560 0
N915>MH4429499 N915 MH4429499 35.320 0.013 40.9980 39.5880 0
N827>N713 N827 N713 46.837 0.013 36.0390 35.1180 0
MH4449321>N736 MH4449321 N736 58.771 0.013 38.2170 37.8210 0
N916>MH4448392 N916 MH4448392 24.121 0.013 42.9800 42.7640 0
MH4449635>N522 MH4449635 N522 58.803 0.013 50.4270 49.7340 0
MH4448474>N737 MH4448474 N737 49.293 0.013 38.5800 38.2160 0
MH4429086>N184 MH4429086 N184 50.288 0.013 42.9170 41.8100 0
N919>N871 N919 N871 49.218 0.013 33.1090 32.8630 0
N847>MH4453124 N847 MH4453124 8.794 0.013 39.9690 39.8960 0
MH4320244>N569 MH4320244 N569 44.735 0.013 45.1600 44.9100 0
N921>MH4454116 N921 MH4454116 24.305 0.013 34.8660 34.7450 0
N550>N922 N550 N922 47.745 0.013 34.7440 34.6210 0
N314>N923 N314 N923 44.127 0.013 33.7430 33.3490 0
N171>MH4453489 N171 MH4453489 9.599 0.013 35.1620 35.1140 0
MH4447668>N465 MH4447668 N465 21.121 0.013 39.3170 39.1760 0
MH4452071>N869 MH4452071 N869 50.447 0.013 39.6340 38.5860 0
N924>MH4429645 N924 MH4429645 11.979 0.013 42.3620 42.1610 0
MH4455191>N592 MH4455191 N592 47.201 0.013 47.5650 45.5990 0
N925>MH4429420 N925 MH4429420 25.948 0.013 48.5400 47.5930 0
N926>N387 N926 N387 44.917 0.013 36.4160 35.9660 0
N929>N38 N929 N38 54.560 0.013 49.2560 48.9400 0
MH1624202>MH1624494 MH1624202 MH1624494 21.137 0.013 32.6510 32.5350 0
N870>MH4428636 N870 MH4428636 50.872 0.013 42.8120 41.9570 0
MH4450396>N673 MH4450396 N673 45.695 0.013 46.0930 45.4400 0
MH4453185>MH4453098 MH4453185 MH4453098 15.135 0.013 35.4310 35.2850 0
N464>MH4448474 N464 MH4448474 75.461 0.013 40.4480 38.5800 0
MH4447726>N930 MH4447726 N930 61.656 0.013 39.1740 38.7620 0
N931>MH4449704 N931 MH4449704 74.474 0.013 41.0100 39.7530 0
MH4451287>N787 MH4451287 N787 63.334 0.013 42.6090 41.0250 0
MH4453031>N926 MH4453031 N926 37.460 0.013 36.7900 36.4160 0
N888>MH4502186 N888 MH4502186 42.532 0.013 32.3850 32.2790 0
MH4452946>N20 MH4452946 N20 4.692 0.013 36.0620 36.0380 0
N487>N704 N487 N704 5.101 0.013 36.7870 36.7000 0
MH4450920>MH4451113 MH4450920 MH4451113 38.432 0.013 50.6410 50.4420 0
MH4429268>MH4429468 MH4429268 MH4429468 60.038 0.013 39.6840 38.9230 0
N908>MH4452946 N908 MH4452946 33.198 0.013 36.6800 36.0620 0
N573>MH4452071 N573 MH4452071 54.466 0.013 40.7150 39.6340 0
N299>N607 N299 N607 40.520 0.013 47.2240 46.2230 0
N466>MH4429179 N466 MH4429179 46.132 0.013 39.4900 38.7200 0
N938>MH4429019 N938 MH4429019 61.003 0.013 44.3600 43.9440 0
MH4427312>N857 MH4427312 N857 52.013 0.013 54.0180 51.3800 0
N688>N915 N688 N915 50.151 0.013 43.0000 40.9980 0
N939>MH1624202 N939 MH1624202 24.344 0.013 34.9100 32.6510 0
N758>MH4451287 N758 MH4451287 42.537 0.013 43.6710 42.6090 0
N940>MH4449796 N940 MH4449796 44.256 0.013 39.3510 37.5830 0
N267>MH4455813 N267 MH4455813 78.868 0.013 50.3630 49.1440 0
N605>MH4449806 N605 MH4449806 73.892 0.013 37.8160 37.4790 0
MH4426188>N726 MH4426188 N726 53.524 0.013 58.1780 57.6600 0
MH4500689>N941 MH4500689 N941 38.110 0.013 33.0570 32.9300 0
N942>N106 N942 N106 62.663 0.013 33.9830 33.7710 0
MH4451870>MH4452189 MH4451870 MH4452189 75.365 0.013 36.0650 35.4430 0
N589>N944 N589 N944 47.723 0.013 44.0520 42.4590 0
MH4453213>N929 MH4453213 N929 44.699 0.013 49.4610 49.2560 0
N851>MH4452462 N851 MH4452462 16.263 0.013 36.1190 36.0380 0
N930>MH4449103 N930 MH4449103 61.027 0.013 38.7620 38.3540 0
MH4428067>N10 MH4428067 N10 42.497 0.013 52.1490 49.7830 0
N705>MH4453837 N705 MH4453837 37.920 0.013 36.0890 35.4400 0
N187>N544 N187 N544 43.811 0.013 41.8100 39.3690 0
MH4455121>N942 MH4455121 N942 48.850 0.013 34.1450 33.9830 0
MH4451967>MH4452154 MH4451967 MH4452154 40.714 0.013 35.8300 35.6080 0
MH4448813>MH4449503 MH4448813 MH4449503 87.105 0.013 42.1670 41.6400 0
N686>MH4428139 N686 MH4428139 6.661 0.013 49.6310 48.9580 0
N941>N950 N941 N950 39.462 0.013 32.9300 32.7980 0
N951>MH8707824 N951 MH8707824 30.338 0.013 36.4770 36.3270 0
MH4453837>N645 MH4453837 N645 38.129 0.013 35.4400 35.2500 0
N952>MH4453970 N952 MH4453970 42.823 0.013 35.6440 35.2560 0
MH4454125>N755 MH4454125 N755 5.288 0.013 35.2700 35.2670 0
MH4428188>N562 MH4428188 N562 52.846 0.013 43.9290 42.8700 0
MH4454657>N899 MH4454657 N899 45.173 0.013 49.5070 48.7350 0
N510>N925 N510 N925 44.134 0.013 49.9400 48.5400 0
N220>N394 N220 N394 60.571 0.013 41.8100 38.7100 0
MH4428636>N954 MH4428636 N954 50.780 0.013 41.9570 41.5360 0
MH4449778>MH4450137 MH4449778 MH4450137 74.815 0.013 38.2350 37.2020 0
N956>MH4450332 N956 MH4450332 16.179 0.013 38.9500 38.7810 0
MH1629888>MH1630330 MH1629888 MH1630330 46.459 0.013 32.2850 32.0570 0
MH4500422>N600 MH4500422 N600 3.747 0.013 38.9790 38.8550 0
N957>MH4428026 N957 MH4428026 60.607 0.013 50.5580 48.1440 0
N814>N406 N814 N406 48.548 0.013 41.6350 40.6510 0
N877>MH4451886 N877 MH4451886 50.382 0.013 35.7790 35.5290 0
N906>MH4449913 N906 MH4449913 74.332 0.013 37.4200 37.2840 0
N35>MH4320104 N35 MH4320104 47.492 0.013 46.2400 46.0050 0
N959>N345 N959 N345 31.443 0.013 39.7530 39.5020 0
N960>N961 N960 N961 47.605 0.013 33.8900 33.6510 0
N962>MH4451058 N962 MH4451058 49.085 0.013 46.6120 46.0010 0
MH4453788>MH4453850 MH4453788 MH4453850 8.863 0.013 35.9020 35.8590 0
N963>MH4453579 N963 MH4453579 60.485 0.013 34.9330 34.8730 0
N964>MH4429179 N964 MH4429179 33.595 0.013 39.0470 38.7130 0
MH4450847>N216 MH4450847 N216 15.364 0.013 44.3490 44.1300 0
N507>MH4320244 N507 MH4320244 54.194 0.013 45.4590 45.1600 0
MH8963773>MH4447452 MH8963773 MH4447452 5.171 0.013 38.7570 38.7440 0
N966>MH4451516 N966 MH4451516 58.060 0.013 43.8700 42.9020 0
MH4450531>N422 MH4450531 N422 43.515 0.013 36.5830 36.1340 0
N656>MH4447880 N656 MH4447880 46.171 0.013 42.3370 41.1890 0
N954>MH4429013 N954 MH4429013 50.347 0.013 41.5360 41.1190 0
N147>N119 N147 N119 28.836 0.013 33.9070 33.6500 0
N334>MH4452680 N334 MH4452680 60.461 0.013 35.3700 35.2360 0
N967>MH4452011 N967 MH4452011 56.838 0.013 36.2940 36.0100 0
N806>MH4501866 N806 MH4501866 61.579 0.013 33.0850 32.7460 0
N735>N968 N735 N968 45.833 0.013 37.4760 36.5570 0
N346>MH4429179 N346 MH4429179 62.838 0.013 39.3200 38.6830 0
MH4454195>MH4454125 MH4454195 MH4454125 17.685 0.013 35.3130 35.2700 0
MH4447452>N711 MH4447452 N711 73.168 0.013 38.7440 38.5360 0
N791>N486 N791 N486 44.817 0.013 38.5920 37.4770 0
MH4427588>N750 MH4427588 N750 42.204 0.013 53.6150 53.0700 0
MH4448029>N255 MH4448029 N255 39.005 0.013 53.6060 53.2760 0
N913>N886 N913 N886 45.346 0.013 48.3530 46.3820 0
N181>MH4448474 N181 MH4448474 38.084 0.013 38.9590 38.5800 0
N961>N719 N961 N719 45.503 0.013 33.6510 33.4230 0
N970>N971 N970 N971 27.895 0.013 36.8250 36.6870 0
N972>N720 N972 N720 25.334 0.013 50.5110 50.2580 0
MH4428583>N914 MH4428583 N914 75.215 0.013 40.9720 40.3500 0
N809>MH1625395 N809 MH1625395 32.004 0.013 34.8010 34.4310 0
MH4451333>N633 MH4451333 N633 5.786 0.013 51.0940 50.9500 0
N794>N749 N794 N749 63.520 0.013 34.3420 34.2370 0
N840>MH1624017 N840 MH1624017 46.270 0.013 34.6240 34.1170 0
MH4500035>N919 MH4500035 N919 56.174 0.013 33.3890 33.1090 0
N974>MH4452809 N974 MH4452809 22.986 0.013 37.0600 36.7720 0
N975>N976 N975 N976 9.513 0.013 40.1500 39.9600 0
MH4454718>MH4454876 MH4454718 MH4454876 20.053 0.013 48.6200 48.1410 0
N470>N471 N470 N471 41.606 0.013 47.1690 46.5800 0
N50>MH4453553 N50 MH4453553 10.891 0.013 46.7880 46.4770 0
N780>N155 N780 N155 43.270 0.013 38.6160 37.4770 0
MH4451468>MH4452154 MH4451468 MH4452154 127.593 0.013 35.8790 35.5590 0
MH4452632>N967 MH4452632 N967 58.813 0.013 36.5900 36.2940 0
N727>MH4426728 N727 MH4426728 49.200 0.013 57.1400 56.6480 0
N950>MH4501851 N950 MH4501851 36.003 0.013 32.7980 32.6790 0
N600>N149 N600 N149 43.369 0.013 38.8550 37.4230 0
MH1624769>N893 MH1624769 N893 15.936 0.013 32.8040 32.7710 0
N822>N240 N822 N240 50.718 0.013 49.0560 47.4940 0
N766>N921 N766 N921 37.914 0.013 35.0500 34.8660 0
MH1625316>N756 MH1625316 N756 40.431 0.013 32.1460 31.9590 0
MH4426979>N647 MH4426979 N647 44.617 0.013 57.4620 55.7900 0
N456>N839 N456 N839 43.390 0.013 36.3570 34.6420 0
N446>MH4454312 N446 MH4454312 44.226 0.013 36.2740 35.7160 0
MH4428968>N977 MH4428968 N977 71.726 0.013 51.9600 51.2500 0
N978>N695 N978 N695 54.911 0.013 51.1300 47.8700 0
N807>N672 N807 N672 41.465 0.013 37.2850 35.8940 0
N610>MH4455909 N610 MH4455909 37.957 0.013 34.0730 33.6940 0
N979>N980 N979 N980 52.971 0.013 35.3700 34.8410 0
N418>N487 N418 N487 33.514 0.013 38.1070 36.8860 0
N364>N912 N364 N912 19.126 0.013 49.4860 49.0970 0
N593>N878 N593 N878 61.721 0.013 53.5710 52.9610 0
MH4450776>MH4450378 MH4450776 MH4450378 91.014 0.013 39.0100 37.5100 0
MH4429107>N325 MH4429107 N325 48.958 0.013 39.7560 39.4800 0
MH4456777>N574 MH4456777 N574 43.926 0.013 38.7690 36.5810 0
N923>N250 N923 N250 1.333 0.013 33.3490 33.3370 0
N265>MH8963773 N265 MH8963773 67.848 0.013 38.9600 38.7570 0
MH4427849>MH4428245 MH4427849 MH4428245 99.613 0.013 50.2630 47.7450 0
MH4455813>MH4455808 MH4455813 MH4455808 47.984 0.013 48.0990 47.8610 0
N944>MH4499116 N944 MH4499116 7.953 0.013 42.4590 42.1940 0
MH4454398>N298 MH4454398 N298 2.828 0.013 47.6820 47.6440 0
N874>N836 N874 N836 38.978 0.013 37.6230 37.2410 0
N397>N188 N397 N188 65.067 0.013 41.9600 41.4200 0
MH4428638>N938 MH4428638 N938 55.311 0.013 44.6610 44.3600 0
N875>N151 N875 N151 47.215 0.013 36.0400 35.5690 0
MH4453095>N170 MH4453095 N170 49.060 0.013 35.5960 35.3510 0
N984>MH4447346 N984 MH4447346 45.454 0.013 41.0900 40.5000 0
MH4450802>MH4450920 MH4450802 MH4450920 25.261 0.013 51.0000 50.7170 0
N833>N940 N833 N940 45.862 0.013 41.2020 39.3510 0
MH4449796>N439 MH4449796 N439 40.953 0.013 37.5830 37.2900 0
N985>N159 N985 N159 24.262 0.013 51.5180 51.1750 0
N819>MH4449011 N819 MH4449011 80.439 0.013 37.6680 37.5310 0
MH4428320>N823 MH4428320 N823 54.393 0.013 45.2090 44.9900 0
N986>N685 N986 N685 9.784 0.013 50.4110 49.9840 0
N987>N699 N987 N699 1.487 0.013 51.4150 51.3800 0
N922>MH4454116 N922 MH4454116 10.081 0.013 34.6210 34.5960 0
N977>MH4428524 N977 MH4428524 69.080 0.013 51.2500 50.5740 0
MH4455943>N248 MH4455943 N248 46.235 0.013 47.7180 47.2560 0
MH4499116>MH4499406 MH4499116 MH4499406 36.671 0.013 42.1940 40.9300 0
MH4448626>N698 MH4448626 N698 60.937 0.013 52.3600 51.7510 0
MH4454643>N890 MH4454643 N890 51.160 0.013 48.9320 48.2720 0
N990>N251 N990 N251 61.678 0.013 52.1100 51.5980 0
N367>MH4452527 N367 MH4452527 16.319 0.013 35.2240 35.2080 0
N980>MH4454629 N980 MH4454629 15.903 0.013 34.8410 34.6900 0
MH4451886>N991 MH4451886 N991 60.198 0.013 35.3760 35.3140 0
N971>N951 N971 N951 42.499 0.013 36.6870 36.4770 0
N626>MH4450170 N626 MH4450170 44.977 0.013 49.7600 49.0100 0
N631>MH1625395 N631 MH1625395 53.406 0.013 34.7260 34.4310 0
N297>MH4429086 N297 MH4429086 56.794 0.013 44.9400 42.9170 0
N992>MH4446883 N992 MH4446883 43.628 0.013 38.8210 38.5870 0
MH4450180>MH4450332 MH4450180 MH4450332 25.832 0.013 38.9760 38.8170 0
MH4448929>N693 MH4448929 N693 49.839 0.013 40.2590 39.8700 0
MH1631514>N176 MH1631514 N176 13.847 0.013 30.7140 30.4580 0
N748>N994 N748 N994 34.274 0.013 35.2730 34.8420 0
N186>MH4454993 N186 MH4454993 41.828 0.013 37.4520 35.5440 0
N995>N754 N995 N754 55.686 0.013 46.9620 46.6850 0
N996>N811 N996 N811 54.354 0.013 41.9400 38.5400 0
N991>MH4452189 N991 MH4452189 22.964 0.013 35.3140 35.2910 0
N692>N815 N692 N815 47.511 0.013 47.4710 46.0060 0
MH1625959>N997 MH1625959 N997 19.155 0.013 31.8400 31.5750 0
N998>N734 N998 N734 13.819 0.013 38.6460 38.3700 0
N798>N963 N798 N963 60.835 0.013 34.9960 34.9330 0
MH4428137>MH4428188 MH4428137 MH4428188 10.147 0.013 44.4290 43.9290 0
MH4428067>MH4427849 MH4428067 MH4427849 61.310 0.013 52.1490 50.2990 0
N490>MH4427588 N490 MH4427588 74.117 0.013 54.2200 53.6150 0
N999>N614 N999 N614 34.719 0.013 34.4800 33.9030 0
N239>MH5233531 N239 MH5233531 44.209 0.013 35.6720 35.3190 0
N968>MH4454993 N968 MH4454993 46.890 0.013 36.5570 35.6200 0
N1000>MH4448796 N1000 MH4448796 43.932 0.013 52.4100 51.8720 0
N1001>MH4451886 N1001 MH4451886 69.297 0.013 35.4440 35.3760 0
N620>MH4500689 N620 MH4500689 61.044 0.013 33.7410 33.1330 0
N9>MH4429527 N9 MH4429527 53.537 0.013 40.5600 39.2140 0
N162>N561 N162 N561 44.028 0.013 33.1380 32.9630 0
N994>MH4454629 N994 MH4454629 11.323 0.013 34.8420 34.6900 0
N1002>N347 N1002 N347 17.713 0.013 51.8100 51.6320 0
N356>MH4450531 N356 MH4450531 63.490 0.013 36.9000 36.5830 0
MH4451207>N1001 MH4451207 N1001 66.895 0.013 35.5100 35.4440 0
MH4449860>MH4450100 MH4449860 MH4450100 40.700 0.013 40.5490 40.3200 0
MH4502186>N0 MH4502186 N0 48.376 0.013 32.1270 31.9900 0
N576>MH4453213 N576 MH4453213 40.900 0.013 49.5550 49.4610 0
N665>N962 N665 N962 43.210 0.013 47.1500 46.6120 0
N976>MH4449866 N976 MH4449866 25.031 0.013 39.9600 39.4570 0
MH4449503>MH4449977 MH4449503 MH4449977 83.750 0.013 41.6400 41.1220 0
N1003>N655 N1003 N655 30.541 0.013 43.3410 43.3170 0
N1005>N172 N1005 N172 60.070 0.013 37.0450 36.7440 0
N1006>MH7465841 N1006 MH7465841 44.230 0.013 42.8940 42.3640 0
MH4456372>N725 MH4456372 N725 42.476 0.013 47.2000 46.5150 0
N1007>MH4449118 N1007 MH4449118 57.745 0.013 40.7000 39.2320 0
MH4428367>N168 MH4428367 N168 48.771 0.013 47.0680 44.3670 0
N1009>MH4452154 N1009 MH4452154 58.496 0.013 36.1930 35.6350 0
MH4452541>N63 MH4452541 N63 21.533 0.013 37.2870 36.9280 0
N440>MH4450391 N440 MH4450391 16.624 0.013 36.9610 36.8420 0
N134>MH4450617 N134 MH4450617 59.203 0.013 45.2200 44.3040 0
MH4427659>MH4427741 MH4427659 MH4427741 30.188 0.013 54.0850 52.3900 0
MH4451967>MH4451823 MH4451967 MH4451823 37.691 0.013 35.8300 34.6690 0
MH4429019>MH4429086 MH4429019 MH4429086 17.071 0.013 43.9100 42.9200 0
MH4428638>N461 MH4428638 N461 24.762 0.013 44.7610 42.6370 0

[XSECTIONS]
;;Link Shape Geom1 Geom2 Geom3 Geom4 Barrels
N0>N1 CIRCULAR 0.450 0 0 0 1
MH4454411>N3 CIRCULAR 0.225 0 0 0 1
N4>MH4450314 CIRCULAR 0.150 0 0 0 1
N8>N9 CIRCULAR 0.150 0 0 0 1
N10>MH4428367 CIRCULAR 0.150 0 0 0 1
MH4428606>N13 CIRCULAR 0.150 0 0 0 1
MH4454744>N15 CIRCULAR 0.150 0 0 0 1
N18>MH4452397 CIRCULAR 0.150 0 0 0 1
N20>MH4453133 CIRCULAR 0.225 0 0 0 1
N22>MH4447602 CIRCULAR 0.150 0 0 0 1
MH4429312>N25 CIRCULAR 0.150 0 0 0 1
N26>MH4453788 CIRCULAR 0.143 0 0 0 1
N28>MH4456108 CIRCULAR 0.150 0 0 0 1
N30>N31 CIRCULAR 0.150 0 0 0 1
N32>N33 CIRCULAR 0.143 0 0 0 1
N34>N35 CIRCULAR 0.225 0 0 0 1
N38>MH4454209 CIRCULAR 0.225 0 0 0 1
MH1624017>MH1623826 CIRCULAR 0.150 0 0 0 1
MH4429136>N43 CIRCULAR 0.150 0 0 0 1
MH4501201>N45 CIRCULAR 0.300 0 0 0 1
MH1623826>N46 CIRCULAR 0.150 0 0 0 1
N47>MH4501544 CIRCULAR 0.450 0 0 0 1
N49>N50 CIRCULAR 0.150 0 0 0 1
N51>MH4454640 CIRCULAR 0.225 0 0 0 1
N53>MH4453512 CIRCULAR 0.225 0 0 0 1
MH4452154>MH4452217 CIRCULAR 0.225 0 0 0 1
N59>MH4446824 CIRCULAR 0.150 0 0 0 1
N61>N62 CIRCULAR 0.150 0 0 0 1
N63>N64 CIRCULAR 0.150 0 0 0 1
MH4453931>N66 CIRCULAR 0.150 0 0 0 1
N67>MH4456468 CIRCULAR 0.150 0 0 0 1
N69>MH4502097 CIRCULAR 0.450 0 0 0 1
N71>N72 CIRCULAR 0.225 0 0 0 1
N73>MH4447369 CIRCULAR 0.150 0 0 0 1
MH4448345>MH4448419 CIRCULAR 0.225 0 0 0 1
N77>MH4449083 CIRCULAR 0.150 0 0 0 1
N13>MH4429136 CIRCULAR 0.150 0 0 0 1
N79>MH4499116 CIRCULAR 0.150 0 0 0 1
N81>N82 CIRCULAR 0.143 0 0 0 1
N83>MH4454674 CIRCULAR 0.150 0 0 0 1
N85>MH4427688 CIRCULAR 0.150 0 0 0 1
N87>MH4448753 CIRCULAR 0.143 0 0 0 1
N89>MH1627682 CIRCULAR 0.150 0 0 0 1
MH4452538>MH5118586 CIRCULAR 0.150 0 0 0 1
N33>MH4452724 CIRCULAR 0.150 0 0 0 1
MH4448853>N97 CIRCULAR 0.225 0 0 0 1
N98>MH4500422 CIRCULAR 0.225 0 0 0 1
N100>N101 CIRCULAR 0.150 0 0 0 1
MH4449806>MH4450137 CIRCULAR 0.150 0 0 0 1
MH4428117>MH4428139 CIRCULAR 0.150 0 0 0 1
N106>MH4455909 CIRCULAR 0.375 0 0 0 1
N108>MH5118586 CIRCULAR 0.150 0 0 0 1
N109>MH4451823 CIRCULAR 0.150 0 0 0 1
MH4450787>N112 CIRCULAR 0.150 0 0 0 1
N113>MH4428026 CIRCULAR 0.150 0 0 0 1
MH4501866>N116 CIRCULAR 0.300 0 0 0 1
N119>MH1627986 CIRCULAR 0.225 0 0 0 1
MH4499632>N122 CIRCULAR 0.225 0 0 0 1
MH4429035>N124 CIRCULAR 0.150 0 0 0 1
MH4454674>N125 CIRCULAR 0.150 0 0 0 1
MH4449704>MH4449118 CIRCULAR 0.150 0 0 0 1
N128>MH1629281 CIRCULAR 0.150 0 0 0 1
N82>MH4454718 CIRCULAR 0.150 0 0 0 1
N131>MH4451287 CIRCULAR 0.150 0 0 0 1
N133>N134 CIRCULAR 0.143 0 0 0 1
N137>MH4450219 CIRCULAR 0.150 0 0 0 1
N139>MH4449321 CIRCULAR 0.150 0 0 0 1
MH4448509>N142 CIRCULAR 0.150 0 0 0 1
N143>MH4428524 CIRCULAR 0.150 0 0 0 1
N145>MH1627084 CIRCULAR 0.150 0 0 0 1
MH1627084>N147 CIRCULAR 0.225 0 0 0 1
N148>N79 CIRCULAR 0.150 0 0 0 1
N149>N150 CIRCULAR 0.225 0 0 0 1
N151>MH4455762 CIRCULAR 0.150 0 0 0 1
N153>N154 CIRCULAR 0.150 0 0 0 1
N155>MH4452721 CIRCULAR 0.150 0 0 0 1
N157>N158 CIRCULAR 0.150 0 0 0 1
N159>MH4453931 CIRCULAR 0.150 0 0 0 1
MH4447128>MH4447726 CIRCULAR 0.150 0 0 0 1
MH1627986>N162 CIRCULAR 0.225 0 0 0 1
MH4501544>N69 CIRCULAR 0.450 0 0 0 1
N46>N163 CIRCULAR 0.150 0 0 0 1
N166>MH4428268 CIRCULAR 0.150 0 0 0 1
N168>MH4428636 CIRCULAR 0.150 0 0 0 1
N170>N171 CIRCULAR 0.150 0 0 0 1
N172>MH4452977 CIRCULAR 0.150 0 0 0 1
N176>MH1632309 CIRCULAR 0.375 0 0 0 1
N178>MH4500035 CIRCULAR 0.225 0 0 0 1
N180>N181 CIRCULAR 0.150 0 0 0 1
MH4451759>N183 CIRCULAR 0.143 0 0 0 1
N184>N59 CIRCULAR 0.150 0 0 0 1
MH4454490>N186 CIRCULAR 0.150 0 0 0 1
N112>N187 CIRCULAR 0.150 0 0 0 1
N188>MH4447880 CIRCULAR 0.150 0 0 0 1
MH4499417>N191 CIRCULAR 0.225 0 0 0 1
N192>MH4453579 CIRCULAR 0.225 0 0 0 1
N194>MH4451531 CIRCULAR 0.143 0 0 0 1
MH4449785>N197 CIRCULAR 0.225 0 0 0 1
N198>MH4447416 CIRCULAR 0.150 0 0 0 1
N202>MH4453124 CIRCULAR 0.150 0 0 0 1
MH5228371>N205 CIRCULAR 0.143 0 0 0 1
N206>MH6153571 CIRCULAR 0.450 0 0 0 1
N208>N209 CIRCULAR 0.150 0 0 0 1
N210>N211 CIRCULAR 0.450 0 0 0 1
N212>MH4427425 CIRCULAR 0.150 0 0 0 1
N216>N131 CIRCULAR 0.150 0 0 0 1
MH7465841>N220 CIRCULAR 0.225 0 0 0 1
N221>N222 CIRCULAR 0.150 0 0 0 1
MH4451971>N224 CIRCULAR 0.150 0 0 0 1
N225>MH4450757 CIRCULAR 0.150 0 0 0 1
N228>N229 CIRCULAR 0.150 0 0 0 1
N230>N231 CIRCULAR 0.150 0 0 0 1
N232>MH4451971 CIRCULAR 0.150 0 0 0 1
MH4447684>N234 CIRCULAR 0.150 0 0 0 1
MH4449173>MH4449785 CIRCULAR 0.225 0 0 0 1
N238>N239 CIRCULAR 0.143 0 0 0 1
N240>MH4451058 CIRCULAR 0.150 0 0 0 1
MH4452032>MH4451840 CIRCULAR 0.150 0 0 0 1
N244>MH1790845 CIRCULAR 0.143 0 0 0 1
N246>N247 CIRCULAR 0.225 0 0 0 1
N248>N61 CIRCULAR 0.150 0 0 0 1
MH4456553>N250 CIRCULAR 0.450 0 0 0 1
N251>MH4449510 CIRCULAR 0.150 0 0 0 1
MH4428713>MH4428995 CIRCULAR 0.150 0 0 0 1
N255>MH4447351 CIRCULAR 0.150 0 0 0 1
MH4450170>N225 CIRCULAR 0.150 0 0 0 1
MH4447880>N258 CIRCULAR 0.150 0 0 0 1
MH4500254>N260 CIRCULAR 0.150 0 0 0 1
N261>MH4448662 CIRCULAR 0.150 0 0 0 1
N263>MH5228371 CIRCULAR 0.143 0 0 0 1
MH4429357>N265 CIRCULAR 0.225 0 0 0 1
MH5286735>N267 CIRCULAR 0.150 0 0 0 1
N268>N269 CIRCULAR 0.225 0 0 0 1
N270>N271 CIRCULAR 0.224 0 0 0 1
N272>MH4449860 CIRCULAR 0.150 0 0 0 1
MH5118586>N202 CIRCULAR 0.150 0 0 0 1
N274>N275 CIRCULAR 0.150 0 0 0 1
N45>N276 CIRCULAR 0.300 0 0 0 1
N277>N278 CIRCULAR 0.150 0 0 0 1
N125>N279 CIRCULAR 0.150 0 0 0 1
N280>N281 CIRCULAR 0.150 0 0 0 1
MH4452919>MH4453133 CIRCULAR 0.150 0 0 0 1
MH4450449>MH4450581 CIRCULAR 0.300 0 0 0 1
N285>MH6042164 CIRCULAR 0.150 0 0 0 1
N287>MH1625395 CIRCULAR 0.150 0 0 0 1
MH4447397>MH5241467 CIRCULAR 0.150 0 0 0 1
N293>N294 CIRCULAR 0.150 0 0 0 1
N295>MH4449321 CIRCULAR 0.150 0 0 0 1
N296>N297 CIRCULAR 0.150 0 0 0 1
N298>N299 CIRCULAR 0.143 0 0 0 1
N300>MH4455121 CIRCULAR 0.225 0 0 0 1
MH4450219>N302 CIRCULAR 0.150 0 0 0 1
N303>MH4428765 CIRCULAR 0.150 0 0 0 1
N307>MH1624138 CIRCULAR 0.150 0 0 0 1
MH4452902>MH4452980 CIRCULAR 0.150 0 0 0 1
N311>MH4451333 CIRCULAR 0.143 0 0 0 1
MH1623974>N314 CIRCULAR 0.150 0 0 0 1
MH4428139>MH4428320 CIRCULAR 0.150 0 0 0 1
MH1632309>MH1632398 CIRCULAR 0.450 0 0 0 1
N317>N318 CIRCULAR 0.150 0 0 0 1
N319>MH4447643 CIRCULAR 0.300 0 0 0 1
N321>N322 CIRCULAR 0.250 0 0 0 1
MH4452081>N324 CIRCULAR 0.150 0 0 0 1
MH4447416>MH4447726 CIRCULAR 0.150 0 0 0 1
N325>MH4429357 CIRCULAR 0.150 0 0 0 1
MH4429013>N327 CIRCULAR 0.150 0 0 0 1
MH4448419>N328 CIRCULAR 0.225 0 0 0 1
MH4429468>MH4446883 CIRCULAR 0.143 0 0 0 1
N331>N332 CIRCULAR 0.150 0 0 0 1
MH4451058>MH4451092 CIRCULAR 0.150 0 0 0 1
MH4452217>N334 CIRCULAR 0.225 0 0 0 1
MH4448796>N336 CIRCULAR 0.150 0 0 0 1
N337>MH4500902 CIRCULAR 0.150 0 0 0 1
N339>MH4454411 CIRCULAR 0.225 0 0 0 1
N340>N341 CIRCULAR 0.150 0 0 0 1
MH4448753>MH4449330 CIRCULAR 0.150 0 0 0 1
N343>MH4450211 CIRCULAR 0.150 0 0 0 1
N345>N346 CIRCULAR 0.143 0 0 0 1
N347>MH4453770 CIRCULAR 0.150 0 0 0 1
MH4429527>MH4447397 CIRCULAR 0.150 0 0 0 1
N353>N354 CIRCULAR 0.150 0 0 0 1
MH4450975>N356 CIRCULAR 0.150 0 0 0 1
N357>MH4451840 CIRCULAR 0.150 0 0 0 1
MH4450207>MH4449806 CIRCULAR 0.150 0 0 0 1
MH4453740>N340 CIRCULAR 0.150 0 0 0 1
MH4429179>N361 CIRCULAR 0.150 0 0 0 1
N362>N363 CIRCULAR 0.143 0 0 0 1
MH4449083>N364 CIRCULAR 0.150 0 0 0 1
MH4448662>N365 CIRCULAR 0.150 0 0 0 1
N366>N367 CIRCULAR 0.300 0 0 0 1
MH4452527>MH4452680 CIRCULAR 0.300 0 0 0 1
N163>MH1624769 CIRCULAR 0.150 0 0 0 1
MH4454629>N300 CIRCULAR 0.225 0 0 0 1
N372>MH1624494 CIRCULAR 0.150 0 0 0 1
N375>N230 CIRCULAR 0.150 0 0 0 1
MH4451143>MH4450975 CIRCULAR 0.150 0 0 0 1
MH4450922>MH4451207 CIRCULAR 0.300 0 0 0 1
N379>MH8963773 CIRCULAR 0.143 0 0 0 1
N66>MH4454643 CIRCULAR 0.150 0 0 0 1
MH4454209>N51 CIRCULAR 0.225 0 0 0 1
MH4456108>N382 CIRCULAR 0.150 0 0 0 1
N383>MH4454744 CIRCULAR 0.150 0 0 0 1
MH4426971>X385 CIRCULAR 0.150 0 0 0 1
MH4453970>N192 CIRCULAR 0.225 0 0 0 1
N387>MH4453512 CIRCULAR 0.150 0 0 0 1
N389>MH6153571 CIRCULAR 0.150 0 0 0 1
MH4498454>N391 CIRCULAR 0.150 0 0 0 1
N394>MH4429503 CIRCULAR 0.225 0 0 0 1
MH4429645>N397 CIRCULAR 0.150 0 0 0 1
MH4452011>MH4451871 CIRCULAR 0.225 0 0 0 1
N328>MH4449103 CIRCULAR 0.225 0 0 0 1
N401>MH4502097 CIRCULAR 0.300 0 0 0 1
N278>MH4499048 CIRCULAR 0.150 0 0 0 1
N403>MH4428524 CIRCULAR 0.150 0 0 0 1
MH4499729>N405 CIRCULAR 0.150 0 0 0 1
N406>MH4456532 CIRCULAR 0.150 0 0 0 1
N408>MH4454376 CIRCULAR 0.225 0 0 0 1
MH1629281>N411 CIRCULAR 0.225 0 0 0 1
N412>MH4499323 CIRCULAR 0.150 0 0 0 1
N414>MH1623928 CIRCULAR 0.450 0 0 0 1
N416>MH4428920 CIRCULAR 0.150 0 0 0 1
MH4453124>N418 CIRCULAR 0.150 0 0 0 1
MH4451871>N419 CIRCULAR 0.225 0 0 0 1
N422>MH4450922 CIRCULAR 0.150 0 0 0 1
MH4449849>MH4449785 CIRCULAR 0.150 0 0 0 1
MH4455780>N426 CIRCULAR 0.150 0 0 0 1
MH4450757>N427 CIRCULAR 0.150 0 0 0 1
N3>MH4454629 CIRCULAR 0.225 0 0 0 1
MH4429019>MH7465841 CIRCULAR 0.225 0 0 0 1
N222>N148 CIRCULAR 0.150 0 0 0 1
N431>N432 CIRCULAR 0.225 0 0 0 1
N25>MH4447394 CIRCULAR 0.150 0 0 0 1
N434>N98 CIRCULAR 0.225 0 0 0 1
MH1624138>MH1624769 CIRCULAR 0.450 0 0 0 1
MH4453315>MH4453553 CIRCULAR 0.143 0 0 0 1
MH4428426>MH4428245 CIRCULAR 0.150 0 0 0 1
N439>N440 CIRCULAR 0.150 0 0 0 1
MH4450378>MH4450554 CIRCULAR 0.225 0 0 0 1
MH1631057>MH1631514 CIRCULAR 0.375 0 0 0 1
MH6153571>N414 CIRCULAR 0.450 0 0 0 1
N445>N446 CIRCULAR 0.150 0 0 0 1
N447>MH4427095 CIRCULAR 0.150 0 0 0 1
MH4427688>N166 CIRCULAR 0.150 0 0 0 1
N450>MH4455516 CIRCULAR 0.150 0 0 0 1
MH1623725>N453 CIRCULAR 0.150 0 0 0 1
N455>N456 CIRCULAR 0.150 0 0 0 1
N72>N178 CIRCULAR 0.225 0 0 0 1
N457>N287 CIRCULAR 0.150 0 0 0 1
N458>MH4456551 CIRCULAR 0.150 0 0 0 1
MH4428995>N460 CIRCULAR 0.150 0 0 0 1
N461>N416 CIRCULAR 0.150 0 0 0 1
N341>MH4454490 CIRCULAR 0.150 0 0 0 1
N432>MH4453489 CIRCULAR 0.225 0 0 0 1
MH4449436>N464 CIRCULAR 0.150 0 0 0 1
N465>MH4448509 CIRCULAR 0.150 0 0 0 1
MH4428920>N466 CIRCULAR 0.150 0 0 0 1
N467>N468 CIRCULAR 0.143 0 0 0 1
MH4455808>N470 CIRCULAR 0.150 0 0 0 1
N471>N472 CIRCULAR 0.150 0 0 0 1
N473>MH1623974 CIRCULAR 0.150 0 0 0 1
N474>MH4450920 CIRCULAR 0.225 0 0 0 1
MH4451516>N477 CIRCULAR 0.150 0 0 0 1
MH4452994>N431 CIRCULAR 0.150 0 0 0 1
MH4452189>N366 CIRCULAR 0.300 0 0 0 1
MH4449882>MH4449704 CIRCULAR 0.150 0 0 0 1
MH1629073>N157 CIRCULAR 0.150 0 0 0 1
MH1623928>MH1624138 CIRCULAR 0.450 0 0 0 1
N482>MH4452721 CIRCULAR 0.150 0 0 0 1
N361>MH4429503 CIRCULAR 0.150 0 0 0 1
N483>MH4429320 CIRCULAR 0.143 0 0 0 1
MH4451945>N208 CIRCULAR 0.150 0 0 0 1
N486>N487 CIRCULAR 0.150 0 0 0 1
N488>N489 CIRCULAR 0.150 0 0 0 1
MH4453489>MH4453579 CIRCULAR 0.225 0 0 0 1
MH4427095>N490 CIRCULAR 0.150 0 0 0 1
N491>N492 CIRCULAR 0.143 0 0 0 1
MH4452809>MH4452632 CIRCULAR 0.150 0 0 0 1
N498>MH5286735 CIRCULAR 0.143 0 0 0 1
N499>MH4456553 CIRCULAR 0.450 0 0 0 1
MH4453981>N501 CIRCULAR 0.150 0 0 0 1
N354>N108 CIRCULAR 0.150 0 0 0 1
MH4456532>N71 CIRCULAR 0.225 0 0 0 1
N505>MH4450207 CIRCULAR 0.150 0 0 0 1
MH4320104>N507 CIRCULAR 0.225 0 0 0 1
MH4447351>N510 CIRCULAR 0.150 0 0 0 1
N336>N511 CIRCULAR 0.150 0 0 0 1
MH4426673>N515 CIRCULAR 0.150 0 0 0 1
MH4450077>N517 CIRCULAR 0.150 0 0 0 1
MH4428836>MH4429107 CIRCULAR 0.150 0 0 0 1
MH4453553>MH4453740 CIRCULAR 0.150 0 0 0 1
N522>MH4450170 CIRCULAR 0.150 0 0 0 1
MH4429656>MH4447643 CIRCULAR 0.143 0 0 0 1
MH4450617>N343 CIRCULAR 0.150 0 0 0 1
MH4448392>MH4448813 CIRCULAR 0.150 0 0 0 1
MH4449913>N530 CIRCULAR 0.300 0 0 0 1
MH4427309>N85 CIRCULAR 0.150 0 0 0 1
N532>N533 CIRCULAR 0.150 0 0 0 1
N534>MH1625316 CIRCULAR 0.150 0 0 0 1
MH4450137>N536 CIRCULAR 0.150 0 0 0 1
MH4429584>MH4429544 CIRCULAR 0.143 0 0 0 1
N426>N100 CIRCULAR 0.150 0 0 0 1
MH4452721>MH4452946 CIRCULAR 0.225 0 0 0 1
N542>MH4428797 CIRCULAR 0.150 0 0 0 1
N544>MH4451468 CIRCULAR 0.150 0 0 0 1
MH4450391>MH4450531 CIRCULAR 0.150 0 0 0 1
N1>MH1629194 CIRCULAR 0.450 0 0 0 1
N62>MH6042164 CIRCULAR 0.150 0 0 0 1
N549>N307 CIRCULAR 0.150 0 0 0 1
MH4453579>N550 CIRCULAR 0.375 0 0 0 1
MH4449977>N552 CIRCULAR 0.150 0 0 0 1
N553>N554 CIRCULAR 0.150 0 0 0 1
MH1625395>N549 CIRCULAR 0.150 0 0 0 1
N557>MH4454125 CIRCULAR 0.143 0 0 0 1
N559>N560 CIRCULAR 0.150 0 0 0 1
N561>MH1629281 CIRCULAR 0.225 0 0 0 1
N562>N563 CIRCULAR 0.150 0 0 0 1
N564>MH4453047 CIRCULAR 0.150 0 0 0 1
N517>MH4449436 CIRCULAR 0.150 0 0 0 1
N566>MH4428268 CIRCULAR 0.150 0 0 0 1
N567>MH4455813 CIRCULAR 0.150 0 0 0 1
N569>MH4499632 CIRCULAR 0.225 0 0 0 1
MH4451576>N573 CIRCULAR 0.150 0 0 0 1
N574>MH4499417 CIRCULAR 0.150 0 0 0 1
MH4452980>N576 CIRCULAR 0.225 0 0 0 1
N577>MH4452527 CIRCULAR 0.150 0 0 0 1
N578>MH4447394 CIRCULAR 0.150 0 0 0 1
N581>MH4499729 CIRCULAR 0.143 0 0 0 1
N582>MH4450193 CIRCULAR 0.150 0 0 0 1
N511>MH4449635 CIRCULAR 0.150 0 0 0 1
N585>MH4454657 CIRCULAR 0.150 0 0 0 1
N587>MH4450757 CIRCULAR 0.150 0 0 0 1
MH4428800>MH4429035 CIRCULAR 0.150 0 0 0 1
MH6042164>N589 CIRCULAR 0.150 0 0 0 1
N302>N587 CIRCULAR 0.150 0 0 0 1
N592>N268 CIRCULAR 0.225 0 0 0 1
MH4447369>N593 CIRCULAR 0.150 0 0 0 1
N477>MH4452071 CIRCULAR 0.150 0 0 0 1
N191>N595 CIRCULAR 0.225 0 0 0 1
N596>MH4451516 CIRCULAR 0.150 0 0 0 1
N560>N145 CIRCULAR 0.150 0 0 0 1
N597>N246 CIRCULAR 0.225 0 0 0 1
MH4449118>MH4448345 CIRCULAR 0.150 0 0 0 1
MH4447394>N599 CIRCULAR 0.225 0 0 0 1
N405>N600 CIRCULAR 0.150 0 0 0 1
MH4454876>N375 CIRCULAR 0.150 0 0 0 1
N231>MH4455429 CIRCULAR 0.150 0 0 0 1
MH4450554>MH4450449 CIRCULAR 0.225 0 0 0 1
MH4448762>N605 CIRCULAR 0.150 0 0 0 1
MH1632398>OUT CIRCULAR 0.450 0 0 0 1
N607>MH4454901 CIRCULAR 0.143 0 0 0 1
N609>N610 CIRCULAR 0.150 0 0 0 1
N15>N611 CIRCULAR 0.150 0 0 0 1
N612>MH1624202 CIRCULAR 0.150 0 0 0 1
N614>MH1629073 CIRCULAR 0.150 0 0 0 1
N615>N585 CIRCULAR 0.150 0 0 0 1
N31>MH4454901 CIRCULAR 0.150 0 0 0 1
MH4429503>N319 CIRCULAR 0.300 0 0 0 1
MH4428524>N553 CIRCULAR 0.150 0 0 0 1
N616>MH4454195 CIRCULAR 0.225 0 0 0 1
MH4453512>N618 CIRCULAR 0.225 0 0 0 1
N530>MH4450449 CIRCULAR 0.300 0 0 0 1
N619>MH4499632 CIRCULAR 0.150 0 0 0 1
N260>N620 CIRCULAR 0.150 0 0 0 1
N211>MH1631057 CIRCULAR 0.450 0 0 0 1
N621>MH1626450 CIRCULAR 0.150 0 0 0 1
N623>MH1626578 CIRCULAR 0.150 0 0 0 1
N625>N626 CIRCULAR 0.150 0 0 0 1
MH4429411>MH4429136 CIRCULAR 0.150 0 0 0 1
N276>MH4501851 CIRCULAR 0.300 0 0 0 1
N630>N631 CIRCULAR 0.150 0 0 0 1
N632>MH4452538 CIRCULAR 0.150 0 0 0 1
N633>N232 CIRCULAR 0.150 0 0 0 1
N634>N488 CIRCULAR 0.150 0 0 0 1
N554>MH4429019 CIRCULAR 0.150 0 0 0 1
MH1790845>MH4456372 CIRCULAR 0.143 0 0 0 1
MH5216010>N353 CIRCULAR 0.143 0 0 0 1
N640>N8 CIRCULAR 0.150 0 0 0 1
MH4498407>MH4498454 CIRCULAR 0.150 0 0 0 1
N324>N482 CIRCULAR 0.150 0 0 0 1
N642>MH4453748 CIRCULAR 0.150 0 0 0 1
N644>MH4429136 CIRCULAR 0.150 0 0 0 1
N645>N339 CIRCULAR 0.225 0 0 0 1
N124>MH4429312 CIRCULAR 0.150 0 0 0 1
N646>MH4452632 CIRCULAR 0.143 0 0 0 1
N647>MH4427312 CIRCULAR 0.150 0 0 0 1
N649>MH4450922 CIRCULAR 0.300 0 0 0 1
MH4449103>MH4449173 CIRCULAR 0.225 0 0 0 1
MH4446883>MH4429656 CIRCULAR 0.143 0 0 0 1
N318>N83 CIRCULAR 0.150 0 0 0 1
N650>N28 CIRCULAR 0.150 0 0 0 1
N552>MH4449704 CIRCULAR 0.150 0 0 0 1
MH4455909>N499 CIRCULAR 0.450 0 0 0 1
MH4451113>N652 CIRCULAR 0.225 0 0 0 1
MH4450100>MH4450180 CIRCULAR 0.150 0 0 0 1
N655>N656 CIRCULAR 0.150 0 0 0 1
N599>MH4448345 CIRCULAR 0.225 0 0 0 1
MH4429323>N658 CIRCULAR 0.150 0 0 0 1
N659>N660 CIRCULAR 0.150 0 0 0 1
MH4449920>N137 CIRCULAR 0.150 0 0 0 1
N662>MH1790382 CIRCULAR 0.143 0 0 0 1
N664>N665 CIRCULAR 0.143 0 0 0 1
N666>MH4455602 CIRCULAR 0.150 0 0 0 1
N668>MH4452902 CIRCULAR 0.150 0 0 0 1
MH4429471>MH4447128 CIRCULAR 0.150 0 0 0 1
N271>MH4455121 CIRCULAR 0.224 0 0 0 1
N670>MH4451886 CIRCULAR 0.150 0 0 0 1
N672>MH4499417 CIRCULAR 0.150 0 0 0 1
N673>N674 CIRCULAR 0.150 0 0 0 1
N675>MH4447394 CIRCULAR 0.150 0 0 0 1
N676>MH4447128 CIRCULAR 0.150 0 0 0 1
MH4501851>MH4501866 CIRCULAR 0.300 0 0 0 1
N677>MH4450802 CIRCULAR 0.150 0 0 0 1
N281>MH4449920 CIRCULAR 0.150 0 0 0 1
MH4447506>N261 CIRCULAR 0.150 0 0 0 1
MH4428245>MH4428606 CIRCULAR 0.150 0 0 0 1
N43>MH4429499 CIRCULAR 0.150 0 0 0 1
MH4447643>MH4447691 CIRCULAR 0.300 0 0 0 1
N683>N280 CIRCULAR 0.150 0 0 0 1
MH4446824>N180 CIRCULAR 0.150 0 0 0 1
MH4447602>MH4429645 CIRCULAR 0.150 0 0 0 1
MH4453770>N615 CIRCULAR 0.150 0 0 0 1
N489>MH4449485 CIRCULAR 0.150 0 0 0 1
N685>N686 CIRCULAR 0.143 0 0 0 1
MH4429499>N578 CIRCULAR 0.150 0 0 0 1
N687>N688 CIRCULAR 0.150 0 0 0 1
N150>MH4500902 CIRCULAR 0.225 0 0 0 1
MH5233531>N690 CIRCULAR 0.250 0 0 0 1
N691>MH4448762 CIRCULAR 0.150 0 0 0 1
N652>N692 CIRCULAR 0.150 0 0 0 1
N693>N675 CIRCULAR 0.150 0 0 0 1
MH4456468>N694 CIRCULAR 0.150 0 0 0 1
N695>MH4428146 CIRCULAR 0.150 0 0 0 1
N698>N699 CIRCULAR 0.150 0 0 0 1
N700>MH4428096 CIRCULAR 0.150 0 0 0 1
N702>MH4450167 CIRCULAR 0.143 0 0 0 1
N704>N705 CIRCULAR 0.150 0 0 0 1
N706>MH5118586 CIRCULAR 0.150 0 0 0 1
MH1630330>MH1630926 CIRCULAR 0.224 0 0 0 1
MH4500043>N434 CIRCULAR 0.225 0 0 0 1
N229>N128 CIRCULAR 0.150 0 0 0 1
MH4454993>MH5233531 CIRCULAR 0.250 0 0 0 1
MH4455762>N270 CIRCULAR 0.224 0 0 0 1
N711>MH4448853 CIRCULAR 0.225 0 0 0 1
MH1626450>MH4501544 CIRCULAR 0.150 0 0 0 1
N713>MH4456551 CIRCULAR 0.150 0 0 0 1
N714>MH4454490 CIRCULAR 0.150 0 0 0 1
N715>MH4454195 CIRCULAR 0.150 0 0 0 1
N716>MH4450077 CIRCULAR 0.150 0 0 0 1
MH4453133>N717 CIRCULAR 0.225 0 0 0 1
N411>MH1629888 CIRCULAR 0.225 0 0 0 1
N719>MH1626578 CIRCULAR 0.150 0 0 0 1
N720>N18 CIRCULAR 0.143 0 0 0 1
MH4427714>N722 CIRCULAR 0.150 0 0 0 1
N723>MH4450314 CIRCULAR 0.150 0 0 0 1
MH4450332>MH4450167 CIRCULAR 0.150 0 0 0 1
N725>MH4498407 CIRCULAR 0.150 0 0 0 1
N717>N53 CIRCULAR 0.225 0 0 0 1
N453>N458 CIRCULAR 0.150 0 0 0 1
N492>MH4427714 CIRCULAR 0.150 0 0 0 1
N726>N727 CIRCULAR 0.150 0 0 0 1
N728>MH1623725 CIRCULAR 0.150 0 0 0 1
MH4450167>MH4449849 CIRCULAR 0.150 0 0 0 1
N729>MH4452952 CIRCULAR 0.150 0 0 0 1
N247>MH1629194 CIRCULAR 0.225 0 0 0 1
N250>N206 CIRCULAR 0.450 0 0 0 1
N734>N735 CIRCULAR 0.150 0 0 0 1
MH4449510>N625 CIRCULAR 0.150 0 0 0 1
N736>MH4449913 CIRCULAR 0.150 0 0 0 1
N737>N738 CIRCULAR 0.150 0 0 0 1
MH4450581>N649 CIRCULAR 0.300 0 0 0 1
N472>MH4455780 CIRCULAR 0.150 0 0 0 1
N741>MH4426188 CIRCULAR 0.150 0 0 0 1
N327>MH4429312 CIRCULAR 0.150 0 0 0 1
N515>MH4426979 CIRCULAR 0.150 0 0 0 1
N745>MH4455191 CIRCULAR 0.225 0 0 0 1
MH4454312>N748 CIRCULAR 0.150 0 0 0 1
N749>MH4455121 CIRCULAR 0.375 0 0 0 1
N750>N700 CIRCULAR 0.150 0 0 0 1
N751>MH4427849 CIRCULAR 0.150 0 0 0 1
N753>MH4452994 CIRCULAR 0.150 0 0 0 1
N754>N34 CIRCULAR 0.225 0 0 0 1
N755>MH4453970 CIRCULAR 0.225 0 0 0 1
N756>MH1625959 CIRCULAR 0.150 0 0 0 1
N427>N758 CIRCULAR 0.150 0 0 0 1
N275>MH4427309 CIRCULAR 0.150 0 0 0 1
N762>MH4447369 CIRCULAR 0.150 0 0 0 1
MH5241467>N691 CIRCULAR 0.150 0 0 0 1
MH4452977>N763 CIRCULAR 0.150 0 0 0 1
N764>MH4429323 CIRCULAR 0.150 0 0 0 1
MH4498291>MH4498454 CIRCULAR 0.150 0 0 0 1
MH4453748>N766 CIRCULAR 0.150 0 0 0 1
MH5164627>N630 CIRCULAR 0.143 0 0 0 1
MH4452724>N768 CIRCULAR 0.150 0 0 0 1
MH4453850>MH4454009 CIRCULAR 0.143 0 0 0 1
N234>N771 CIRCULAR 0.150 0 0 0 1
N772>MH4453031 CIRCULAR 0.150 0 0 0 1
MH1626189>N47 CIRCULAR 0.450 0 0 0 1
N777>N778 CIRCULAR 0.143 0 0 0 1
N779>MH4428606 CIRCULAR 0.150 0 0 0 1
MH4456551>N609 CIRCULAR 0.150 0 0 0 1
N205>N780 CIRCULAR 0.150 0 0 0 1
N781>MH4449118 CIRCULAR 0.150 0 0 0 1
N391>MH4499059 CIRCULAR 0.150 0 0 0 1
N783>N337 CIRCULAR 0.150 0 0 0 1
MH4451673>MH4451871 CIRCULAR 0.150 0 0 0 1
N460>MH4429357 CIRCULAR 0.150 0 0 0 1
MH4454901>N714 CIRCULAR 0.150 0 0 0 1
N363>N446 CIRCULAR 0.143 0 0 0 1
N787>MH4451945 CIRCULAR 0.150 0 0 0 1
N788>MH5241467 CIRCULAR 0.143 0 0 0 1
N789>N670 CIRCULAR 0.150 0 0 0 1
MH4447346>N198 CIRCULAR 0.150 0 0 0 1
MH4455602>MH4455780 CIRCULAR 0.150 0 0 0 1
N501>N791 CIRCULAR 0.150 0 0 0 1
MH4450314>N792 CIRCULAR 0.150 0 0 0 1
MH4427659>X570 CIRCULAR 0.150 0 0 0 1
MH4454376>N794 CIRCULAR 0.375 0 0 0 1
N795>MH4447506 CIRCULAR 0.150 0 0 0 1
MH4450193>MH4450378 CIRCULAR 0.225 0 0 0 1
N796>MH4499059 CIRCULAR 0.150 0 0 0 1
N563>MH4428836 CIRCULAR 0.150 0 0 0 1
MH4428026>N566 CIRCULAR 0.150 0 0 0 1
MH1626578>N89 CIRCULAR 0.150 0 0 0 1
N269>MH4456532 CIRCULAR 0.225 0 0 0 1
N279>MH4454657 CIRCULAR 0.150 0 0 0 1
MH4453098>N798 CIRCULAR 0.375 0 0 0 1
N799>MH4428836 CIRCULAR 0.143 0 0 0 1
MH4502097>MH4502186 CIRCULAR 0.450 0 0 0 1
MH4499323>N783 CIRCULAR 0.150 0 0 0 1
N778>MH4456108 CIRCULAR 0.143 0 0 0 1
N801>N612 CIRCULAR 0.150 0 0 0 1
N804>MH1626189 CIRCULAR 0.450 0 0 0 1
MH4500625>N806 CIRCULAR 0.150 0 0 0 1
MH4499048>N807 CIRCULAR 0.150 0 0 0 1
N808>N809 CIRCULAR 0.150 0 0 0 1
N611>MH4454411 CIRCULAR 0.150 0 0 0 1
MH4429420>N296 CIRCULAR 0.150 0 0 0 1
MH4449330>N683 CIRCULAR 0.150 0 0 0 1
N811>MH4451143 CIRCULAR 0.150 0 0 0 1
MH4455516>N567 CIRCULAR 0.150 0 0 0 1
N294>N814 CIRCULAR 0.150 0 0 0 1
MH4455429>N650 CIRCULAR 0.150 0 0 0 1
N815>MH4452081 CIRCULAR 0.150 0 0 0 1
MH4454009>MH4454195 CIRCULAR 0.143 0 0 0 1
N816>MH4428797 CIRCULAR 0.150 0 0 0 1
N817>MH4450396 CIRCULAR 0.150 0 0 0 1
MH4447691>N819 CIRCULAR 0.300 0 0 0 1
MH4499059>N619 CIRCULAR 0.150 0 0 0 1
MH4499406>MH4499729 CIRCULAR 0.150 0 0 0 1
N101>MH4456777 CIRCULAR 0.150 0 0 0 1
N792>N822 CIRCULAR 0.150 0 0 0 1
N823>MH4428638 CIRCULAR 0.150 0 0 0 1
MH4428426>N816 CIRCULAR 0.150 0 0 0 1
MH8707824>N827 CIRCULAR 0.150 0 0 0 1
MH4452397>N632 CIRCULAR 0.150 0 0 0 1
N828>N408 CIRCULAR 0.225 0 0 0 1
N829>MH4449882 CIRCULAR 0.150 0 0 0 1
N830>MH4454398 CIRCULAR 0.143 0 0 0 1
N832>MH4452952 CIRCULAR 0.150 0 0 0 1
MH4450211>N833 CIRCULAR 0.150 0 0 0 1
N834>MH4453185 CIRCULAR 0.150 0 0 0 1
N836>MH4452721 CIRCULAR 0.150 0 0 0 1
N837>N616 CIRCULAR 0.225 0 0 0 1
N838>N772 CIRCULAR 0.150 0 0 0 1
N839>N840 CIRCULAR 0.150 0 0 0 1
N224>N706 CIRCULAR 0.150 0 0 0 1
N674>MH4450847 CIRCULAR 0.150 0 0 0 1
MH4429544>MH4429656 CIRCULAR 0.143 0 0 0 1
N842>MH4428583 CIRCULAR 0.150 0 0 0 1
N845>MH4455943 CIRCULAR 0.150 0 0 0 1
MH4453047>N49 CIRCULAR 0.150 0 0 0 1
N768>N847 CIRCULAR 0.150 0 0 0 1
MH4426728>N447 CIRCULAR 0.150 0 0 0 1
N849>MH4450180 CIRCULAR 0.150 0 0 0 1
MH4427425>MH4427741 CIRCULAR 0.150 0 0 0 1
N763>N851 CIRCULAR 0.150 0 0 0 1
MH1790382>N244 CIRCULAR 0.143 0 0 0 1
N158>N210 CIRCULAR 0.450 0 0 0 1
MH4451531>MH4451759 CIRCULAR 0.143 0 0 0 1
N419>MH4451207 CIRCULAR 0.225 0 0 0 1
MH4429320>N853 CIRCULAR 0.150 0 0 0 1
N332>MH1627084 CIRCULAR 0.150 0 0 0 1
N854>N228 CIRCULAR 0.150 0 0 0 1
N855>MH4500254 CIRCULAR 0.150 0 0 0 1
N533>MH1623974 CIRCULAR 0.150 0 0 0 1
MH4449485>MH4449510 CIRCULAR 0.150 0 0 0 1
N209>MH4452541 CIRCULAR 0.150 0 0 0 1
N64>MH4453098 CIRCULAR 0.150 0 0 0 1
N536>MH4450391 CIRCULAR 0.150 0 0 0 1
MH4454640>N745 CIRCULAR 0.225 0 0 0 1
N857>MH4427688 CIRCULAR 0.150 0 0 0 1
N858>MH4426728 CIRCULAR 0.150 0 0 0 1
MH1624494>N534 CIRCULAR 0.150 0 0 0 1
N738>MH4449796 CIRCULAR 0.150 0 0 0 1
N862>N863 CIRCULAR 0.143 0 0 0 1
N865>N753 CIRCULAR 0.150 0 0 0 1
MH4450269>N133 CIRCULAR 0.143 0 0 0 1
MH4447355>MH4448029 CIRCULAR 0.143 0 0 0 1
N869>N865 CIRCULAR 0.150 0 0 0 1
MH4452680>MH4453098 CIRCULAR 0.375 0 0 0 1
MH4428268>N870 CIRCULAR 0.150 0 0 0 1
N871>N401 CIRCULAR 0.300 0 0 0 1
N873>N874 CIRCULAR 0.150 0 0 0 1
MH4428146>N842 CIRCULAR 0.150 0 0 0 1
MH4428800>MH4428606 CIRCULAR 0.150 0 0 0 1
N694>N875 CIRCULAR 0.150 0 0 0 1
MH4452462>N877 CIRCULAR 0.150 0 0 0 1
N878>MH4448626 CIRCULAR 0.150 0 0 0 1
MH1629194>N158 CIRCULAR 0.450 0 0 0 1
N97>MH4449785 CIRCULAR 0.225 0 0 0 1
N722>MH4428137 CIRCULAR 0.150 0 0 0 1
MH1630702>MH1630330 CIRCULAR 0.143 0 0 0 1
MH4451823>N183 CIRCULAR 0.143 0 0 0 1
N886>MH4447684 CIRCULAR 0.150 0 0 0 1
N887>MH4501201 CIRCULAR 0.225 0 0 0 1
N116>N888 CIRCULAR 0.300 0 0 0 1
N890>MH4454640 CIRCULAR 0.150 0 0 0 1
MH4454116>MH4454376 CIRCULAR 0.375 0 0 0 1
MH4428765>MH4428713 CIRCULAR 0.150 0 0 0 1
MH4428797>MH4429013 CIRCULAR 0.150 0 0 0 1
N892>MH4449083 CIRCULAR 0.150 0 0 0 1
MH1627682>N597 CIRCULAR 0.225 0 0 0 1
N893>N804 CIRCULAR 0.450 0 0 0 1
MH4451092>N596 CIRCULAR 0.150 0 0 0 1
N894>MH4451468 CIRCULAR 0.150 0 0 0 1
N197>MH4450193 CIRCULAR 0.225 0 0 0 1
N895>MH4452110 CIRCULAR 0.143 0 0 0 1
N658>MH4428968 CIRCULAR 0.150 0 0 0 1
N122>MH4500043 CIRCULAR 0.225 0 0 0 1
N322>MH4455909 CIRCULAR 0.250 0 0 0 1
N863>MH4428836 CIRCULAR 0.150 0 0 0 1
N595>MH4500689 CIRCULAR 0.225 0 0 0 1
N899>N666 CIRCULAR 0.150 0 0 0 1
MH4452952>MH4452980 CIRCULAR 0.150 0 0 0 1
MH4452110>MH4452032 CIRCULAR 0.143 0 0 0 1
MH4500902>N887 CIRCULAR 0.225 0 0 0 1
N382>N389 CIRCULAR 0.150 0 0 0 1
MH1623436>N372 CIRCULAR 0.150 0 0 0 1
N142>N139 CIRCULAR 0.150 0 0 0 1
MH4427741>N113 CIRCULAR 0.150 0 0 0 1
MH4454395>MH4454718 CIRCULAR 0.143 0 0 0 1
MH4428096>N143 CIRCULAR 0.150 0 0 0 1
MH4426673>X902 CIRCULAR 0.150 0 0 0 1
N903>MH4500625 CIRCULAR 0.150 0 0 0 1
MH1630926>MH1631514 CIRCULAR 0.224 0 0 0 1
N690>N321 CIRCULAR 0.250 0 0 0 1
N699>MH4449485 CIRCULAR 0.150 0 0 0 1
MH4451840>MH4451673 CIRCULAR 0.150 0 0 0 1
MH4449866>N582 CIRCULAR 0.150 0 0 0 1
N771>MH4446824 CIRCULAR 0.150 0 0 0 1
N468>MH4427312 CIRCULAR 0.150 0 0 0 1
MH4449011>N906 CIRCULAR 0.300 0 0 0 1
MH4426971>N274 CIRCULAR 0.150 0 0 0 1
MH4452760>N908 CIRCULAR 0.143 0 0 0 1
N909>MH4447668 CIRCULAR 0.143 0 0 0 1
N365>MH4449510 CIRCULAR 0.150 0 0 0 1
N154>MH1625316 CIRCULAR 0.150 0 0 0 1
N853>MH4429471 CIRCULAR 0.150 0 0 0 1
N618>N828 CIRCULAR 0.225 0 0 0 1
N258>MH4448929 CIRCULAR 0.150 0 0 0 1
N660>MH4428713 CIRCULAR 0.150 0 0 0 1
N912>N913 CIRCULAR 0.150 0 0 0 1
N914>MH4429107 CIRCULAR 0.150 0 0 0 1
N915>MH4429499 CIRCULAR 0.150 0 0 0 1
N827>N713 CIRCULAR 0.150 0 0 0 1
MH4449321>N736 CIRCULAR 0.150 0 0 0 1
N916>MH4448392 CIRCULAR 0.150 0 0 0 1
MH4449635>N522 CIRCULAR 0.150 0 0 0 1
MH4448474>N737 CIRCULAR 0.150 0 0 0 1
MH4429086>N184 CIRCULAR 0.150 0 0 0 1
N919>N871 CIRCULAR 0.300 0 0 0 1
N847>MH4453124 CIRCULAR 0.150 0 0 0 1
MH4320244>N569 CIRCULAR 0.225 0 0 0 1
N921>MH4454116 CIRCULAR 0.150 0 0 0 1
N550>N922 CIRCULAR 0.375 0 0 0 1
N314>N923 CIRCULAR 0.150 0 0 0 1
N171>MH4453489 CIRCULAR 0.150 0 0 0 1
MH4447668>N465 CIRCULAR 0.150 0 0 0 1
MH4452071>N869 CIRCULAR 0.150 0 0 0 1
N924>MH4429645 CIRCULAR 0.150 0 0 0 1
MH4455191>N592 CIRCULAR 0.225 0 0 0 1
N925>MH4429420 CIRCULAR 0.150 0 0 0 1
N926>N387 CIRCULAR 0.150 0 0 0 1
N929>N38 CIRCULAR 0.225 0 0 0 1
MH1624202>MH1624494 CIRCULAR 0.150 0 0 0 1
N870>MH4428636 CIRCULAR 0.150 0 0 0 1
MH4450396>N673 CIRCULAR 0.150 0 0 0 1
MH4453185>MH4453098 CIRCULAR 0.150 0 0 0 1
N464>MH4448474 CIRCULAR 0.150 0 0 0 1
MH4447726>N930 CIRCULAR 0.150 0 0 0 1
N931>MH4449704 CIRCULAR 0.150 0 0 0 1
MH4451287>N787 CIRCULAR 0.150 0 0 0 1
MH4453031>N926 CIRCULAR 0.150 0 0 0 1
N888>MH4502186 CIRCULAR 0.300 0 0 0 1
MH4452946>N20 CIRCULAR 0.225 0 0 0 1
N487>N704 CIRCULAR 0.150 0 0 0 1
MH4450920>MH4451113 CIRCULAR 0.225 0 0 0 1
MH4429268>MH4429468 CIRCULAR 0.143 0 0 0 1
N908>MH4452946 CIRCULAR 0.150 0 0 0 1
N573>MH4452071 CIRCULAR 0.150 0 0 0 1
N299>N607 CIRCULAR 0.143 0 0 0 1
N466>MH4429179 CIRCULAR 0.150 0 0 0 1
N938>MH4429019 CIRCULAR 0.150 0 0 0 1
MH4427312>N857 CIRCULAR 0.150 0 0 0 1
N688>N915 CIRCULAR 0.150 0 0 0 1
N939>MH1624202 CIRCULAR 0.150 0 0 0 1
N758>MH4451287 CIRCULAR 0.150 0 0 0 1
N940>MH4449796 CIRCULAR 0.150 0 0 0 1
N267>MH4455813 CIRCULAR 0.150 0 0 0 1
N605>MH4449806 CIRCULAR 0.150 0 0 0 1
MH4426188>N726 CIRCULAR 0.150 0 0 0 1
MH4500689>N941 CIRCULAR 0.225 0 0 0 1
N942>N106 CIRCULAR 0.375 0 0 0 1
MH4451870>MH4452189 CIRCULAR 0.150 0 0 0 1
N589>N944 CIRCULAR 0.150 0 0 0 1
MH4453213>N929 CIRCULAR 0.225 0 0 0 1
N851>MH4452462 CIRCULAR 0.150 0 0 0 1
N930>MH4449103 CIRCULAR 0.150 0 0 0 1
MH4428067>N10 CIRCULAR 0.150 0 0 0 1
N705>MH4453837 CIRCULAR 0.150 0 0 0 1
N187>N544 CIRCULAR 0.150 0 0 0 1
MH4455121>N942 CIRCULAR 0.375 0 0 0 1
MH4451967>MH4452154 CIRCULAR 0.150 0 0 0 1
MH4448813>MH4449503 CIRCULAR 0.150 0 0 0 1
N686>MH4428139 CIRCULAR 0.143 0 0 0 1
N941>N950 CIRCULAR 0.225 0 0 0 1
N951>MH8707824 CIRCULAR 0.150 0 0 0 1
MH4453837>N645 CIRCULAR 0.225 0 0 0 1
N952>MH4453970 CIRCULAR 0.143 0 0 0 1
MH4454125>N755 CIRCULAR 0.225 0 0 0 1
MH4428188>N562 CIRCULAR 0.150 0 0 0 1
MH4454657>N899 CIRCULAR 0.150 0 0 0 1
N510>N925 CIRCULAR 0.150 0 0 0 1
N220>N394 CIRCULAR 0.225 0 0 0 1
MH4428636>N954 CIRCULAR 0.150 0 0 0 1
MH4449778>MH4450137 CIRCULAR 0.150 0 0 0 1
N956>MH4450332 CIRCULAR 0.150 0 0 0 1
MH1629888>MH1630330 CIRCULAR 0.225 0 0 0 1
MH4500422>N600 CIRCULAR 0.225 0 0 0 1
N957>MH4428026 CIRCULAR 0.150 0 0 0 1
N814>N406 CIRCULAR 0.150 0 0 0 1
N877>MH4451886 CIRCULAR 0.150 0 0 0 1
N906>MH4449913 CIRCULAR 0.300 0 0 0 1
N35>MH4320104 CIRCULAR 0.225 0 0 0 1
N959>N345 CIRCULAR 0.143 0 0 0 1
N960>N961 CIRCULAR 0.150 0 0 0 1
N962>MH4451058 CIRCULAR 0.150 0 0 0 1
MH4453788>MH4453850 CIRCULAR 0.143 0 0 0 1
N963>MH4453579 CIRCULAR 0.375 0 0 0 1
N964>MH4429179 CIRCULAR 0.143 0 0 0 1
MH4450847>N216 CIRCULAR 0.150 0 0 0 1
N507>MH4320244 CIRCULAR 0.225 0 0 0 1
MH8963773>MH4447452 CIRCULAR 0.225 0 0 0 1
N966>MH4451516 CIRCULAR 0.150 0 0 0 1
MH4450531>N422 CIRCULAR 0.150 0 0 0 1
N656>MH4447880 CIRCULAR 0.150 0 0 0 1
N954>MH4429013 CIRCULAR 0.150 0 0 0 1
N147>N119 CIRCULAR 0.225 0 0 0 1
N334>MH4452680 CIRCULAR 0.225 0 0 0 1
N967>MH4452011 CIRCULAR 0.150 0 0 0 1
N806>MH4501866 CIRCULAR 0.150 0 0 0 1
N735>N968 CIRCULAR 0.150 0 0 0 1
N346>MH4429179 CIRCULAR 0.150 0 0 0 1
MH4454195>MH4454125 CIRCULAR 0.225 0 0 0 1
MH4447452>N711 CIRCULAR 0.225 0 0 0 1
N791>N486 CIRCULAR 0.150 0 0 0 1
MH4427588>N750 CIRCULAR 0.150 0 0 0 1
MH4448029>N255 CIRCULAR 0.143 0 0 0 1
N913>N886 CIRCULAR 0.150 0 0 0 1
N181>MH4448474 CIRCULAR 0.150 0 0 0 1
N961>N719 CIRCULAR 0.150 0 0 0 1
N970>N971 CIRCULAR 0.150 0 0 0 1
N972>N720 CIRCULAR 0.143 0 0 0 1
MH4428583>N914 CIRCULAR 0.150 0 0 0 1
N809>MH1625395 CIRCULAR 0.150 0 0 0 1
MH4451333>N633 CIRCULAR 0.143 0 0 0 1
N794>N749 CIRCULAR 0.375 0 0 0 1
N840>MH1624017 CIRCULAR 0.150 0 0 0 1
MH4500035>N919 CIRCULAR 0.300 0 0 0 1
N974>MH4452809 CIRCULAR 0.150 0 0 0 1
N975>N976 CIRCULAR 0.143 0 0 0 1
MH4454718>MH4454876 CIRCULAR 0.150 0 0 0 1
N470>N471 CIRCULAR 0.150 0 0 0 1
N50>MH4453553 CIRCULAR 0.150 0 0 0 1
N780>N155 CIRCULAR 0.150 0 0 0 1
MH4451468>MH4452154 CIRCULAR 0.225 0 0 0 1
MH4452632>N967 CIRCULAR 0.150 0 0 0 1
N727>MH4426728 CIRCULAR 0.150 0 0 0 1
N950>MH4501851 CIRCULAR 0.225 0 0 0 1
N600>N149 CIRCULAR 0.225 0 0 0 1
MH1624769>N893 CIRCULAR 0.450 0 0 0 1
N822>N240 CIRCULAR 0.150 0 0 0 1
N766>N921 CIRCULAR 0.150 0 0 0 1
MH1625316>N756 CIRCULAR 0.150 0 0 0 1
MH4426979>N647 CIRCULAR 0.150 0 0 0 1
N456>N839 CIRCULAR 0.150 0 0 0 1
N446>MH4454312 CIRCULAR 0.150 0 0 0 1
MH4428968>N977 CIRCULAR 0.150 0 0 0 1
N978>N695 CIRCULAR 0.150 0 0 0 1
N807>N672 CIRCULAR 0.150 0 0 0 1
N610>MH4455909 CIRCULAR 0.150 0 0 0 1
N979>N980 CIRCULAR 0.150 0 0 0 1
N418>N487 CIRCULAR 0.150 0 0 0 1
N364>N912 CIRCULAR 0.150 0 0 0 1
N593>N878 CIRCULAR 0.150 0 0 0 1
MH4450776>MH4450378 CIRCULAR 0.150 0 0 0 1
MH4429107>N325 CIRCULAR 0.150 0 0 0 1
MH4456777>N574 CIRCULAR 0.150 0 0 0 1
N923>N250 CIRCULAR 0.150 0 0 0 1
N265>MH8963773 CIRCULAR 0.225 0 0 0 1
MH4427849>MH4428245 CIRCULAR 0.150 0 0 0 1
MH4455813>MH4455808 CIRCULAR 0.150 0 0 0 1
N944>MH4499116 CIRCULAR 0.150 0 0 0 1
MH4454398>N298 CIRCULAR 0.143 0 0 0 1
N874>N836 CIRCULAR 0.150 0 0 0 1
N397>N188 CIRCULAR 0.150 0 0 0 1
MH4428638>N938 CIRCULAR 0.150 0 0 0 1
N875>N151 CIRCULAR 0.150 0 0 0 1
MH4453095>N170 CIRCULAR 0.150 0 0 0 1
N984>MH4447346 CIRCULAR 0.150 0 0 0 1
MH4450802>MH4450920 CIRCULAR 0.150 0 0 0 1
N833>N940 CIRCULAR 0.150 0 0 0 1
MH4449796>N439 CIRCULAR 0.150 0 0 0 1
N985>N159 CIRCULAR 0.150 0 0 0 1
N819>MH4449011 CIRCULAR 0.300 0 0 0 1
MH4428320>N823 CIRCULAR 0.150 0 0 0 1
N986>N685 CIRCULAR 0.143 0 0 0 1
N987>N699 CIRCULAR 0.150 0 0 0 1
N922>MH4454116 CIRCULAR 0.375 0 0 0 1
N977>MH4428524 CIRCULAR 0.150 0 0 0 1
MH4455943>N248 CIRCULAR 0.150 0 0 0 1
MH4499116>MH4499406 CIRCULAR 0.150 0 0 0 1
MH4448626>N698 CIRCULAR 0.150 0 0 0 1
MH4454643>N890 CIRCULAR 0.150 0 0 0 1
N990>N251 CIRCULAR 0.150 0 0 0 1
N367>MH4452527 CIRCULAR 0.300 0 0 0 1
N980>MH4454629 CIRCULAR 0.150 0 0 0 1
MH4451886>N991 CIRCULAR 0.300 0 0 0 1
N971>N951 CIRCULAR 0.150 0 0 0 1
N626>MH4450170 CIRCULAR 0.150 0 0 0 1
N631>MH1625395 CIRCULAR 0.150 0 0 0 1
N297>MH4429086 CIRCULAR 0.150 0 0 0 1
N992>MH4446883 CIRCULAR 0.143 0 0 0 1
MH4450180>MH4450332 CIRCULAR 0.150 0 0 0 1
MH4448929>N693 CIRCULAR 0.150 0 0 0 1
MH1631514>N176 CIRCULAR 0.375 0 0 0 1
N748>N994 CIRCULAR 0.150 0 0 0 1
N186>MH4454993 CIRCULAR 0.150 0 0 0 1
N995>N754 CIRCULAR 0.225 0 0 0 1
N996>N811 CIRCULAR 0.150 0 0 0 1
N991>MH4452189 CIRCULAR 0.300 0 0 0 1
N692>N815 CIRCULAR 0.150 0 0 0 1
MH1625959>N997 CIRCULAR 0.143 0 0 0 1
N998>N734 CIRCULAR 0.143 0 0 0 1
N798>N963 CIRCULAR 0.375 0 0 0 1
MH4428137>MH4428188 CIRCULAR 0.150 0 0 0 1
MH4428067>MH4427849 CIRCULAR 0.150 0 0 0 1
N490>MH4427588 CIRCULAR 0.150 0 0 0 1
N999>N614 CIRCULAR 0.150 0 0 0 1
N239>MH5233531 CIRCULAR 0.143 0 0 0 1
N968>MH4454993 CIRCULAR 0.150 0 0 0 1
N1000>MH4448796 CIRCULAR 0.150 0 0 0 1
N1001>MH4451886 CIRCULAR 0.300 0 0 0 1
N620>MH4500689 CIRCULAR 0.150 0 0 0 1
N9>MH4429527 CIRCULAR 0.150 0 0 0 1
N162>N561 CIRCULAR 0.225 0 0 0 1
N994>MH4454629 CIRCULAR 0.150 0 0 0 1
N1002>N347 CIRCULAR 0.150 0 0 0 1
N356>MH4450531 CIRCULAR 0.150 0 0 0 1
MH4451207>N1001 CIRCULAR 0.300 0 0 0 1
MH4449860>MH4450100 CIRCULAR 0.150 0 0 0 1
MH4502186>N0 CIRCULAR 0.450 0 0 0 1
N576>MH4453213 CIRCULAR 0.225 0 0 0 1
N665>N962 CIRCULAR 0.150 0 0 0 1
N976>MH4449866 CIRCULAR 0.150 0 0 0 1
MH4449503>MH4449977 CIRCULAR 0.150 0 0 0 1
N1003>N655 CIRCULAR 0.143 0 0 0 1
N1005>N172 CIRCULAR 0.150 0 0 0 1
N1006>MH7465841 CIRCULAR 0.143 0 0 0 1
MH4456372>N725 CIRCULAR 0.150 0 0 0 1
N1007>MH4449118 CIRCULAR 0.150 0 0 0 1
MH4428367>N168 CIRCULAR 0.150 0 0 0 1
N1009>MH4452154 CIRCULAR 0.150 0 0 0 1
MH4452541>N63 CIRCULAR 0.150 0 0 0 1
N440>MH4450391 CIRCULAR 0.150 0 0 0 1
N134>MH4450617 CIRCULAR 0.150 0 0 0 1
MH4427659>MH4427741 CIRCULAR 0.150 0 0 0 1
MH4451967>MH4451823 CIRCULAR 0.150 0 0 0 1
MH4429019>MH4429086 CIRCULAR 0.150 0 0 0 1
MH4428638>N461 CIRCULAR 0.143 0 0 0 1

[TIMESERIES]
;;Name Time(h) Value
Q0 0.00000 0.282198
Q0 8.00000 0.282198
Q1 0.00000 0.228632
Q1 8.00000 0.228632
Q2 0.00000 0.187586
Q2 8.00000 0.187586
Q3 0.00000 0.015454
Q3 8.00000 0.015454
Q4 0.00000 0.096647
Q4 8.00000 0.096647
Q5 0.00000 0.104231
Q5 8.00000 0.104231
Q6 0.00000 0.084413
Q6 8.00000 0.084413
Q7 0.00000 0.227159
Q7 8.00000 0.227159
Q8 0.00000 0.273067
Q8 8.00000 0.273067
Q9 0.00000 0.273140
Q9 8.00000 0.273140
Q10 0.00000 0.353738
Q10 8.00000 0.353738
Q11 0.00000 0.352060
Q11 8.00000 0.352060
Q12 0.00000 0.082842
Q12 8.00000 0.082842
Q13 0.00000 0.138910
Q13 8.00000 0.138910
Q14 0.00000 0.144691
Q14 8.00000 0.144691
Q15 0.00000 0.024417
Q15 8.00000 0.024417
Q16 0.00000 0.169862
Q16 8.00000 0.169862
Q17 0.00000 0.032592
Q17 8.00000 0.032592
Q18 0.00000 0.220050
Q18 8.00000 0.220050
Q19 0.00000 0.305442
Q19 8.00000 0.305442
Q20 0.00000 0.382603
Q20 8.00000 0.382603
Q21 0.00000 0.400701
Q21 8.00000 0.400701
Q22 0.00000 0.160967
Q22 8.00000 0.160967
Q23 0.00000 0.061470
Q23 8.00000 0.061470
Q24 0.00000 0.235275
Q24 8.00000 0.235275
Q25 0.00000 0.243301
Q25 8.00000 0.243301
Q26 0.00000 0.258221
Q26 8.00000 0.258221
Q27 0.00000 0.088007
Q27 8.00000 0.088007
Q28 0.00000 0.112327
Q28 8.00000 0.112327
Q29 0.00000 0.169873
Q29 8.00000 0.169873
Q30 0.00000 0.178987
Q30 8.00000 0.178987
Q31 0.00000 0.202977
Q31 8.00000 0.202977
Q32 0.00000 0.254093
Q32 8.00000 0.254093
Q33 0.00000 0.238403
Q33 8.00000 0.238403
Q34 0.00000 0.104329
Q34 8.00000 0.104329
Q35 0.00000 0.188855
Q35 8.00000 0.188855
Q36 0.00000 0.343954
Q36 8.00000 0.343954
Q37 0.00000 0.341380
Q37 8.00000 0.341380
Q38 0.00000 0.142367
Q38 8.00000 0.142367
Q39 0.00000 0.400428
Q39 8.00000 0.400428
Q40 0.00000 0.174919
Q40 8.00000 0.174919
Q41 0.00000 0.121610
Q41 8.00000 0.121610
Q42 0.00000 0.179741
Q42 8.00000 0.179741
Q43 0.00000 0.253011
Q43 8.00000 0.253011
Q44 0.00000 0.043563
Q44 8.00000 0.043563
Q45 0.00000 0.048680
Q45 8.00000 0.048680
Q46 0.00000 0.125009
Q46 8.00000 0.125009
Q47 0.00000 0.162077
Q47 8.00000 0.162077
Q48 0.00000 0.217270
Q48 8.00000 0.217270
Q49 0.00000 0.086089
Q49 8.00000 0.086089
Q50 0.00000 0.238905
Q50 8.00000 0.238905
Q51 0.00000 0.162097
Q51 8.00000 0.162097
Q52 0.00000 0.248057
Q52 8.00000 0.248057
Q53 0.00000 0.248688
Q53 8.00000 0.248688
Q54 0.00000 0.243473
Q54 8.00000 0.243473
Q55 0.00000 0.213846
Q55 8.00000 0.213846
Q56 0.00000 0.301111
Q56 8.00000 0.301111
Q57 0.00000 0.277265
Q57 8.00000 0.277265
Q58 0.00000 0.334236
Q58 8.00000 0.334236
Q59 0.00000 0.110259
Q59 8.00000 0.110259
Q60 0.00000 0.150548
Q60 8.00000 0.150548
Q61 0.00000 0.245520
Q61 8.00000 0.245520
Q62 0.00000 0.060630
Q62 8.00000 0.060630
Q63 0.00000 0.191560
Q63 8.00000 0.191560
Q64 0.00000 0.209878
Q64 8.00000 0.209878
Q65 0.00000 1.022545
Q65 8.00000 1.022545
Q66 0.00000 0.073065
Q66 8.00000 0.073065
Q67 0.00000 0.026494
Q67 8.00000 0.026494
Q68 0.00000 0.265899
Q68 8.00000 0.265899
Q69 0.00000 0.285898
Q69 8.00000 0.285898
Q70 0.00000 0.171286
Q70 8.00000 0.171286
Q71 0.00000 0.035115
Q71 8.00000 0.035115
Q72 0.00000 0.159693
Q72 8.00000 0.159693
Q73 0.00000 0.123050
Q73 8.00000 0.123050
Q74 0.00000 0.073748
Q74 8.00000 0.073748
Q75 0.00000 0.144350
Q75 8.00000 0.144350
Q76 0.00000 0.117953
Q76 8.00000 0.117953
Q77 0.00000 0.300132
Q77 8.00000 0.300132
Q78 0.00000 0.451766
Q78 8.00000 0.451766
Q79 0.00000 0.061436
Q79 8.00000 0.061436
Q80 0.00000 0.270573
Q80 8.00000 0.270573
Q81 0.00000 0.214111
Q81 8.00000 0.214111
Q82 0.00000 0.257221
Q82 8.00000 0.257221
Q83 0.00000 0.382078
Q83 8.00000 0.382078
Q84 0.00000 0.244662
Q84 8.00000 0.244662
Q85 0.00000 0.274252
Q85 8.00000 0.274252
Q86 0.00000 0.374279
Q86 8.00000 0.374279
Q87 0.00000 0.215395
Q87 8.00000 0.215395
Q88 0.00000 0.185332
Q88 8.00000 0.185332
Q89 0.00000 0.014989
Q89 8.00000 0.014989
Q90 0.00000 0.244557
Q90 8.00000 0.244557
Q91 0.00000 0.203545
Q91 8.00000 0.203545
Q92 0.00000 0.425083
Q92 8.00000 0.425083
Q93 0.00000 0.237194
Q93 8.00000 0.237194
Q94 0.00000 0.086521
Q94 8.00000 0.086521
Q95 0.00000 0.234477
Q95 8.00000 0.234477
Q96 0.00000 0.296667
Q96 8.00000 0.296667
Q97 0.00000 0.312825
Q97 8.00000 0.312825
Q98 0.00000 0.118591
Q98 8.00000 0.118591
Q99 0.00000 0.517624
Q99 8.00000 0.517624
Q100 0.00000 0.038682
Q100 8.00000 0.038682
Q101 0.00000 0.372804
Q101 8.00000 0.372804
Q102 0.00000 0.061201
Q102 8.00000 0.061201
Q103 0.00000 0.250441
Q103 8.00000 0.250441
Q104 0.00000 0.235502
Q104 8.00000 0.235502
Q105 0.00000 0.182308
Q105 8.00000 0.182308
Q106 0.00000 0.250964
Q106 8.00000 0.250964
Q107 0.00000 0.233014
Q107 8.00000 0.233014
Q108 0.00000 0.151139
Q108 8.00000 0.151139
Q109 0.00000 0.100368
Q109 8.00000 0.100368
Q110 0.00000 0.225571
Q110 8.00000 0.225571
Q111 0.00000 0.298142
Q111 8.00000 0.298142
Q112 0.00000 0.274061
Q112 8.00000 0.274061
Q113 0.00000 0.221681
Q113 8.00000 0.221681
Q114 0.00000 0.333657
Q114 8.00000 0.333657
Q115 0.00000 0.350346
Q115 8.00000 0.350346
Q116 0.00000 0.060343
Q116 8.00000 0.060343
Q117 0.00000 0.054348
Q117 8.00000 0.054348
Q118 0.00000 0.119241
Q118 8.00000 0.119241
Q119 0.00000 0.265720
Q119 8.00000 0.265720
Q120 0.00000 1.035624
Q120 8.00000 1.035624
Q121 0.00000 0.023536
Q121 8.00000 0.023536
Q122 0.00000 0.262830
Q122 8.00000 0.262830
Q123 0.00000 0.328858
Q123 8.00000 0.328858
Q124 0.00000 0.289344
Q124 8.00000 0.289344
Q125 0.00000 0.115310
Q125 8.00000 0.115310
Q126 0.00000 0.287121
Q126 8.00000 0.287121
Q127 0.00000 0.312965
Q127 8.00000 0.312965
Q128 0.00000 0.065380
Q128 8.00000 0.065380
Q129 0.00000 0.275885
Q129 8.00000 0.275885
Q130 0.00000 0.201129
Q130 8.00000 0.201129
Q131 0.00000 0.136974
Q131 8.00000 0.136974
Q132 0.00000 0.169888
Q132 8.00000 0.169888
Q133 0.00000 0.154373
Q133 8.00000 0.154373
Q134 0.00000 0.139391
Q134 8.00000 0.139391
Q135 0.00000 0.189984
Q135 8.00000 0.189984
Q136 0.00000 0.160308
Q136 8.00000 0.160308
Q137 0.00000 0.057999
Q137 8.00000 0.057999
Q138 0.00000 0.019633
Q138 8.00000 0.019633
Q139 0.00000 0.248304
Q139 8.00000 0.248304
Q140 0.00000 0.226349
Q140 8.00000 0.226349
Q141 0.00000 0.170034
Q141 8.00000 0.170034
Q142 0.00000 0.194466
Q142 8.00000 0.194466
Q143 0.00000 0.197185
Q143 8.00000 0.197185
Q144 0.00000 0.095184
Q144 8.00000 0.095184
Q145 0.00000 0.316270
Q145 8.00000 0.316270
Q146 0.00000 0.406879
Q146 8.00000 0.406879
Q147 0.00000 0.324678
Q147 8.00000 0.324678
Q148 0.00000 0.241157
Q148 8.00000 0.241157
Q149 0.00000 0.029782
Q149 8.00000 0.029782
Q150 0.00000 0.422544
Q150 8.00000 0.422544
Q151 0.00000 0.259739
Q151 8.00000 0.259739
Q152 0.00000 0.223341
Q152 8.00000 0.223341
Q153 0.00000 0.255155
Q153 8.00000 0.255155
Q154 0.00000 0.190302
Q154 8.00000 0.190302
Q155 0.00000 0.038397
Q155 8.00000 0.038397
Q156 0.00000 0.207242
Q156 8.00000 0.207242
Q157 0.00000 0.265569
Q157 8.00000 0.265569
Q158 0.00000 0.240511
Q158 8.00000 0.240511
Q159 0.00000 0.048758
Q159 8.00000 0.048758
Q160 0.00000 0.269204
Q160 8.00000 0.269204
Q161 0.00000 0.263722
Q161 8.00000 0.263722
Q162 0.00000 0.232286
Q162 8.00000 0.232286
Q163 0.00000 0.204374
Q163 8.00000 0.204374
Q164 0.00000 0.017294
Q164 8.00000 0.017294
Q166 0.00000 0.221296
Q166 8.00000 0.221296
Q167 0.00000 0.230194
Q167 8.00000 0.230194
Q168 0.00000 0.193329
Q168 8.00000 0.193329
Q169 0.00000 0.227282
Q169 8.00000 0.227282
Q170 0.00000 0.132562
Q170 8.00000 0.132562
Q171 0.00000 0.251085
Q171 8.00000 0.251085
Q172 0.00000 0.193462
Q172 8.00000 0.193462
Q173 0.00000 0.157671
Q173 8.00000 0.157671
Q174 0.00000 0.199358
Q174 8.00000 0.199358
Q175 0.00000 0.233240
Q175 8.00000 0.233240
Q176 0.00000 0.125781
Q176 8.00000 0.125781
Q177 0.00000 0.144585
Q177 8.00000 0.144585
Q178 0.00000 0.318311
Q178 8.00000 0.318311
Q179 0.00000 0.225068
Q179 8.00000 0.225068
Q180 0.00000 0.229041
Q180 8.00000 0.229041
Q181 0.00000 0.221698
Q181 8.00000 0.221698
Q182 0.00000 0.046821
Q182 8.00000 0.046821
Q183 0.00000 0.179485
Q183 8.00000 0.179485
Q184 0.00000 0.071256
Q184 8.00000 0.071256
Q185 0.00000 0.163046
Q185 8.00000 0.163046
Q186 0.00000 0.024321
Q186 8.00000 0.024321
Q187 0.00000 0.286666
Q187 8.00000 0.286666
Q188 0.00000 0.222332
Q188 8.00000 0.222332
Q189 0.00000 0.099144
Q189 8.00000 0.099144
Q190 0.00000 0.299997
Q190 8.00000 0.299997
Q191 0.00000 0.250107
Q191 8.00000 0.250107
Q192 0.00000 0.118960
Q192 8.00000 0.118960
Q193 0.00000 0.406074
Q193 8.00000 0.406074
Q194 0.00000 0.237218
Q194 8.00000 0.237218
Q195 0.00000 0.055445
Q195 8.00000 0.055445
Q196 0.00000 0.268303
Q196 8.00000 0.268303
Q197 0.00000 0.179516
Q197 8.00000 0.179516
Q198 0.00000 0.231573
Q198 8.00000 0.231573
Q199 0.00000 0.269820
Q199 8.00000 0.269820
Q200 0.00000 0.101631
Q200 8.00000 0.101631
Q201 0.00000 0.342143
Q201 8.00000 0.342143
Q202 0.00000 0.183865
Q202 8.00000 0.183865
Q203 0.00000 0.109863
Q203 8.00000 0.109863
Q204 0.00000 0.225098
Q204 8.00000 0.225098
Q205 0.00000 0.157541
Q205 8.00000 0.157541
Q206 0.00000 0.124751
Q206 8.00000 0.124751
Q207 0.00000 0.207181
Q207 8.00000 0.207181
Q208 0.00000 0.087593
Q208 8.00000 0.087593
Q209 0.00000 0.334805
Q209 8.00000 0.334805
Q210 0.00000 0.472617
Q210 8.00000 0.472617
Q211 0.00000 0.041048
Q211 8.00000 0.041048
Q212 0.00000 0.189845
Q212 8.00000 0.189845
Q213 0.00000 0.248307
Q213 8.00000 0.248307
Q214 0.00000 0.036685
Q214 8.00000 0.036685
Q215 0.00000 0.319370
Q215 8.00000 0.319370
Q216 0.00000 0.244966
Q216 8.00000 0.244966
Q217 0.00000 0.176705
Q217 8.00000 0.176705
Q218 0.00000 0.614922
Q218 8.00000 0.614922
Q219 0.00000 0.237262
Q219 8.00000 0.237262
Q220 0.00000 0.212370
Q220 8.00000 0.212370
Q221 0.00000 0.220451
Q221 8.00000 0.220451
Q222 0.00000 0.262209
Q222 8.00000 0.262209
Q223 0.00000 0.040926
Q223 8.00000 0.040926
Q224 0.00000 0.254184
Q224 8.00000 0.254184
Q225 0.00000 0.147537
Q225 8.00000 0.147537
Q226 0.00000 0.370837
Q226 8.00000 0.370837
Q227 0.00000 0.308625
Q227 8.00000 0.308625
Q228 0.00000 0.307682
Q228 8.00000 0.307682
Q229 0.00000 0.327068
Q229 8.00000 0.327068
Q230 0.00000 0.300241
Q230 8.00000 0.300241
Q231 0.00000 0.310191
Q231 8.00000 0.310191
Q232 0.00000 0.176595
Q232 8.00000 0.176595
Q233 0.00000 0.133787
Q233 8.00000 0.133787
Q234 0.00000 0.368555
Q234 8.00000 0.368555
Q235 0.00000 0.284002
Q235 8.00000 0.284002
Q236 0.00000 0.077096
Q236 8.00000 0.077096
Q237 0.00000 0.368996
Q237 8.00000 0.368996
Q238 0.00000 0.336438
Q238 8.00000 0.336438
Q239 0.00000 0.065944
Q239 8.00000 0.065944
Q240 0.00000 0.367509
Q240 8.00000 0.367509
Q241 0.00000 0.217128
Q241 8.00000 0.217128
Q242 0.00000 0.203811
Q242 8.00000 0.203811
Q243 0.00000 0.577709
Q243 8.00000 0.577709
Q244 0.00000 0.010415
Q244 8.00000 0.010415
Q245 0.00000 0.110872
Q245 8.00000 0.110872
Q246 0.00000 0.162800
Q246 8.00000 0.162800
Q247 0.00000 0.145450
Q247 8.00000 0.145450
Q248 0.00000 0.214974
Q248 8.00000 0.214974
Q249 0.00000 0.209582
Q249 8.00000 0.209582
Q250 0.00000 0.140999
Q250 8.00000 0.140999
Q251 0.00000 0.133195
Q251 8.00000 0.133195
Q252 0.00000 0.174773
Q252 8.00000 0.174773
Q253 0.00000 0.266495
Q253 8.00000 0.266495
Q254 0.00000 0.183184
Q254 8.00000 0.183184
Q255 0.00000 0.285192
Q255 8.00000 0.285192
Q256 0.00000 0.333651
Q256 8.00000 0.333651
Q257 0.00000 0.369550
Q257 8.00000 0.369550
Q258 0.00000 0.109183
Q258 8.00000 0.109183
Q259 0.00000 0.240976
Q259 8.00000 0.240976
Q260 0.00000 0.139021
Q260 8.00000 0.139021
Q261 0.00000 0.175095
Q261 8.00000 0.175095
Q262 0.00000 0.311694
Q262 8.00000 0.311694
Q263 0.00000 0.041318
Q263 8.00000 0.041318
Q264 0.00000 0.185714
Q264 8.00000 0.185714
Q265 0.00000 0.181677
Q265 8.00000 0.181677
Q266 0.00000 0.124037
Q266 8.00000 0.124037
Q267 0.00000 0.242297
Q267 8.00000 0.242297
Q268 0.00000 0.266203
Q268 8.00000 0.266203
Q269 0.00000 0.116326
Q269 8.00000 0.116326
Q270 0.00000 0.162078
Q270 8.00000 0.162078
Q271 0.00000 0.229139
Q271 8.00000 0.229139
Q272 0.00000 0.260445
Q272 8.00000 0.260445
Q273 0.00000 0.210311
Q273 8.00000 0.210311
Q274 0.00000 0.350290
Q274 8.00000 0.350290
Q275 0.00000 0.067008
Q275 8.00000 0.067008
Q276 0.00000 0.143389
Q276 8.00000 0.143389
Q277 0.00000 0.246172
Q277 8.00000 0.246172
Q278 0.00000 0.033878
Q278 8.00000 0.033878
Q279 0.00000 0.004635
Q279 8.00000 0.004635
Q280 0.00000 0.135991
Q280 8.00000 0.135991
Q281 0.00000 0.036153
Q281 8.00000 0.036153
Q282 0.00000 0.332138
Q282 8.00000 0.332138
Q283 0.00000 0.202525
Q283 8.00000 0.202525
Q284 0.00000 0.269611
Q284 8.00000 0.269611
Q285 0.00000 0.193123
Q285 8.00000 0.193123
Q286 0.00000 0.180479
Q286 8.00000 0.180479
Q287 0.00000 0.257037
Q287 8.00000 0.257037
Q288 0.00000 0.226101
Q288 8.00000 0.226101
Q289 0.00000 0.019807
Q289 8.00000 0.019807
Q290 0.00000 0.246232
Q290 8.00000 0.246232
Q291 0.00000 0.202218
Q291 8.00000 0.202218
Q292 0.00000 0.199255
Q292 8.00000 0.199255
Q293 0.00000 0.204220
Q293 8.00000 0.204220
Q294 0.00000 0.198642
Q294 8.00000 0.198642
Q295 0.00000 0.247379
Q295 8.00000 0.247379
Q296 0.00000 0.223372
Q296 8.00000 0.223372
Q297 0.00000 0.237137
Q297 8.00000 0.237137
Q298 0.00000 0.220317
Q298 8.00000 0.220317
Q299 0.00000 0.105830
Q299 8.00000 0.105830
Q300 0.00000 0.146680
Q300 8.00000 0.146680
Q301 0.00000 0.304015
Q301 8.00000 0.304015
Q302 0.00000 0.250285
Q302 8.00000 0.250285
Q303 0.00000 0.280873
Q303 8.00000 0.280873
Q304 0.00000 0.102426
Q304 8.00000 0.102426
Q305 0.00000 0.225555
Q305 8.00000 0.225555
Q306 0.00000 0.263777
Q306 8.00000 0.263777
Q307 0.00000 0.207851
Q307 8.00000 0.207851
Q308 0.00000 0.176376
Q308 8.00000 0.176376
Q309 0.00000 0.207807
Q309 8.00000 0.207807
Q310 0.00000 0.256051
Q310 8.00000 0.256051
Q311 0.00000 0.076377
Q311 8.00000 0.076377
Q312 0.00000 0.188195
Q312 8.00000 0.188195
Q313 0.00000 0.077612
Q313 8.00000 0.077612
Q314 0.00000 0.091323
Q314 8.00000 0.091323
Q315 0.00000 0.368434
Q315 8.00000 0.368434
Q316 0.00000 0.352575
Q316 8.00000 0.352575
Q317 0.00000 0.235131
Q317 8.00000 0.235131
Q318 0.00000 0.455340
Q318 8.00000 0.455340
Q319 0.00000 0.171007
Q319 8.00000 0.171007
Q320 0.00000 0.164709
Q320 8.00000 0.164709
Q321 0.00000 0.267640
Q321 8.00000 0.267640
Q322 0.00000 0.305998
Q322 8.00000 0.305998
Q323 0.00000 0.199787
Q323 8.00000 0.199787
Q324 0.00000 0.443399
Q324 8.00000 0.443399
Q325 0.00000 0.252055
Q325 8.00000 0.252055
Q326 0.00000 0.283151
Q326 8.00000 0.283151
Q327 0.00000 0.265118
Q327 8.00000 0.265118
Q328 0.00000 0.161979
Q328 8.00000 0.161979
Q329 0.00000 0.002002
Q329 8.00000 0.002002
Q330 0.00000 0.102523
Q330 8.00000 0.102523
Q331 0.00000 0.256305
Q331 8.00000 0.256305
Q332 0.00000 0.211656
Q332 8.00000 0.211656
Q333 0.00000 0.065278
Q333 8.00000 0.065278
Q334 0.00000 0.238093
Q334 8.00000 0.238093
Q335 0.00000 0.526321
Q335 8.00000 0.526321
Q336 0.00000 0.063743
Q336 8.00000 0.063743
Q337 0.00000 0.224430
Q337 8.00000 0.224430
Q338 0.00000 0.292375
Q338 8.00000 0.292375
Q339 0.00000 0.279499
Q339 8.00000 0.279499
Q340 0.00000 0.193478
Q340 8.00000 0.193478
Q341 0.00000 0.297624
Q341 8.00000 0.297624
Q342 0.00000 0.285780
Q342 8.00000 0.285780
Q343 0.00000 0.358646
Q343 8.00000 0.358646
Q344 0.00000 0.254137
Q344 8.00000 0.254137
Q345 0.00000 0.033692
Q345 8.00000 0.033692
Q346 0.00000 0.243669
Q346 8.00000 0.243669
Q347 0.00000 0.286821
Q347 8.00000 0.286821
Q348 0.00000 0.074867
Q348 8.00000 0.074867
Q349 0.00000 0.136143
Q349 8.00000 0.136143
Q350 0.00000 0.127291
Q350 8.00000 0.127291
Q351 0.00000 0.196665
Q351 8.00000 0.196665
Q352 0.00000 0.200813
Q352 8.00000 0.200813
Q353 0.00000 0.146487
Q353 8.00000 0.146487
Q354 0.00000 0.118008
Q354 8.00000 0.118008
Q355 0.00000 0.218705
Q355 8.00000 0.218705
Q356 0.00000 0.314049
Q356 8.00000 0.314049
Q357 0.00000 0.109482
Q357 8.00000 0.109482
Q358 0.00000 0.377353
Q358 8.00000 0.377353
Q359 0.00000 0.149201
Q359 8.00000 0.149201
Q360 0.00000 0.176060
Q360 8.00000 0.176060
Q361 0.00000 0.039189
Q361 8.00000 0.039189
Q362 0.00000 0.225077
Q362 8.00000 0.225077
Q363 0.00000 0.226020
Q363 8.00000 0.226020
Q364 0.00000 5.308436
Q364 8.00000 5.308436
Q365 0.00000 0.091320
Q365 8.00000 0.091320
Q366 0.00000 0.212523
Q366 8.00000 0.212523
Q367 0.00000 0.168925
Q367 8.00000 0.168925
Q368 0.00000 0.171885
Q368 8.00000 0.171885
Q369 0.00000 0.175596
Q369 8.00000 0.175596
Q370 0.00000 0.252223
Q370 8.00000 0.252223
Q371 0.00000 0.272150
Q371 8.00000 0.272150
Q372 0.00000 0.243904
Q372 8.00000 0.243904
Q373 0.00000 0.191783
Q373 8.00000 0.191783
Q374 0.00000 0.246729
Q374 8.00000 0.246729
Q375 0.00000 0.133036
Q375 8.00000 0.133036
Q376 0.00000 0.187786
Q376 8.00000 0.187786
Q377 0.00000 0.229662
Q377 8.00000 0.229662
Q378 0.00000 0.134056
Q378 8.00000 0.134056
Q379 0.00000 0.307345
Q379 8.00000 0.307345
Q380 0.00000 0.168940
Q380 8.00000 0.168940
Q381 0.00000 0.093171
Q381 8.00000 0.093171
Q382 0.00000 0.052592
Q382 8.00000 0.052592
Q383 0.00000 0.193668
Q383 8.00000 0.193668
Q384 0.00000 0.261928
Q384 8.00000 0.261928
Q385 0.00000 0.234711
Q385 8.00000 0.234711
Q386 0.00000 0.227953
Q386 8.00000 0.227953
Q387 0.00000 0.105169
Q387 8.00000 0.105169
Q388 0.00000 0.309808
Q388 8.00000 0.309808
Q389 0.00000 0.154484
Q389 8.00000 0.154484
Q390 0.00000 0.272960
Q390 8.00000 0.272960
Q391 0.00000 0.184911
Q391 8.00000 0.184911
Q392 0.00000 0.646989
Q392 8.00000 0.646989
Q393 0.00000 0.459023
Q393 8.00000 0.459023
Q394 0.00000 0.262118
Q394 8.00000 0.262118
Q395 0.00000 0.092515
Q395 8.00000 0.092515
Q396 0.00000 0.282659
Q396 8.00000 0.282659
Q397 0.00000 0.136785
Q397 8.00000 0.136785
Q398 0.00000 0.204171
Q398 8.00000 0.204171
Q399 0.00000 0.068397
Q399 8.00000 0.068397
Q400 0.00000 0.021421
Q400 8.00000 0.021421
Q401 0.00000 0.228941
Q401 8.00000 0.228941
Q402 0.00000 0.261295
Q402 8.00000 0.261295
Q403 0.00000 0.312148
Q403 8.00000 0.312148
Q404 0.00000 0.256762
Q404 8.00000 0.256762
Q405 0.00000 0.308319
Q405 8.00000 0.308319
Q406 0.00000 0.263228
Q406 8.00000 0.263228
Q407 0.00000 0.262935
Q407 8.00000 0.262935
Q408 0.00000 0.283711
Q408 8.00000 0.283711
Q409 0.00000 0.251616
Q409 8.00000 0.251616
Q410 0.00000 0.075863
Q410 8.00000 0.075863
Q411 0.00000 0.197843
Q411 8.00000 0.197843
Q412 0.00000 0.163025
Q412 8.00000 0.163025
Q413 0.00000 0.282584
Q413 8.00000 0.282584
Q414 0.00000 0.111081
Q414 8.00000 0.111081
Q415 0.00000 0.109564
Q415 8.00000 0.109564
Q416 0.00000 0.318659
Q416 8.00000 0.318659
Q417 0.00000 0.379899
Q417 8.00000 0.379899
Q418 0.00000 0.254519
Q418 8.00000 0.254519
Q419 0.00000 0.249573
Q419 8.00000 0.249573
Q420 0.00000 0.064871
Q420 8.00000 0.064871
Q421 0.00000 0.267036
Q421 8.00000 0.267036
Q422 0.00000 0.221732
Q422 8.00000 0.221732
Q423 0.00000 0.179433
Q423 8.00000 0.179433
Q424 0.00000 0.310081
Q424 8.00000 0.310081
Q425 0.00000 0.237541
Q425 8.00000 0.237541
Q426 0.00000 0.320726
Q426 8.00000 0.320726
Q427 0.00000 2.775774
Q427 8.00000 2.775774
Q428 0.00000 0.166738
Q428 8.00000 0.166738
Q429 0.00000 0.198262
Q429 8.00000 0.198262
Q430 0.00000 0.241732
Q430 8.00000 0.241732
Q431 0.00000 0.276817
Q431 8.00000 0.276817
Q432 0.00000 0.101567
Q432 8.00000 0.101567
Q433 0.00000 0.154080
Q433 8.00000 0.154080
Q434 0.00000 0.268236
Q434 8.00000 0.268236
Q435 0.00000 0.265433
Q435 8.00000 0.265433
Q436 0.00000 0.075878
Q436 8.00000 0.075878
Q437 0.00000 0.141989
Q437 8.00000 0.141989
Q438 0.00000 0.296826
Q438 8.00000 0.296826
Q439 0.00000 0.008947
Q439 8.00000 0.008947
Q440 0.00000 0.020405
Q440 8.00000 0.020405
Q441 0.00000 0.041720
Q441 8.00000 0.041720
Q442 0.00000 0.146522
Q442 8.00000 0.146522
Q443 0.00000 0.309478
Q443 8.00000 0.309478
Q444 0.00000 0.153140
Q444 8.00000 0.153140
Q445 0.00000 0.297351
Q445 8.00000 0.297351
Q446 0.00000 0.171105
Q446 8.00000 0.171105
Q447 0.00000 0.274281
Q447 8.00000 0.274281
Q448 0.00000 0.080446
Q448 8.00000 0.080446
Q449 0.00000 0.335940
Q449 8.00000 0.335940
Q450 0.00000 0.220000
Q450 8.00000 0.220000
Q451 0.00000 0.191896
Q451 8.00000 0.191896
Q452 0.00000 0.207177
Q452 8.00000 0.207177
Q453 0.00000 0.460357
Q453 8.00000 0.460357
Q454 0.00000 0.242795
Q454 8.00000 0.242795
Q455 0.00000 0.228574
Q455 8.00000 0.228574
Q456 0.00000 0.311769
Q456 8.00000 0.311769
Q457 0.00000 0.263734
Q457 8.00000 0.263734
Q458 0.00000 0.208852
Q458 8.00000 0.208852
Q459 0.00000 0.416078
Q459 8.00000 0.416078
Q460 0.00000 0.225922
Q460 8.00000 0.225922
Q461 0.00000 0.436493
Q461 8.00000 0.436493
Q462 0.00000 0.208842
Q462 8.00000 0.208842
Q463 0.00000 0.271997
Q463 8.00000 0.271997
Q464 0.00000 0.365422
Q464 8.00000 0.365422
Q465 0.00000 0.385994
Q465 8.00000 0.385994
Q466 0.00000 0.312248
Q466 8.00000 0.312248
Q467 0.00000 0.426476
Q467 8.00000 0.426476
Q468 0.00000 0.282567
Q468 8.00000 0.282567
Q469 0.00000 0.227389
Q469 8.00000 0.227389
Q470 0.00000 0.384657
Q470 8.00000 0.384657
Q471 0.00000 0.275484
Q471 8.00000 0.275484
Q472 0.00000 0.126783
Q472 8.00000 0.126783
Q473 0.00000 0.081838
Q473 8.00000 0.081838
Q474 0.00000 0.226772
Q474 8.00000 0.226772
Q475 0.00000 0.201825
Q475 8.00000 0.201825
Q476 0.00000 0.108305
Q476 8.00000 0.108305
Q477 0.00000 0.134117
Q477 8.00000 0.134117
Q478 0.00000 0.018768
Q478 8.00000 0.018768
Q479 0.00000 0.108753
Q479 8.00000 0.108753
Q480 0.00000 0.381563
Q480 8.00000 0.381563
Q481 0.00000 0.289547
Q481 8.00000 0.289547
Q482 0.00000 0.614445
Q482 8.00000 0.614445
Q483 0.00000 0.151230
Q483 8.00000 0.151230
Q484 0.00000 0.200077
Q484 8.00000 0.200077
Q485 0.00000 0.185977
Q485 8.00000 0.185977
Q486 0.00000 0.182653
Q486 8.00000 0.182653
Q487 0.00000 0.269037
Q487 8.00000 0.269037
Q488 0.00000 0.246381
Q488 8.00000 0.246381
Q489 0.00000 0.242073
Q489 8.00000 0.242073
Q490 0.00000 0.264972
Q490 8.00000 0.264972
Q491 0.00000 0.139873
Q491 8.00000 0.139873
Q492 0.00000 0.144106
Q492 8.00000 0.144106
Q493 0.00000 0.021151
Q493 8.00000 0.021151
Q494 0.00000 0.293395
Q494 8.00000 0.293395
Q495 0.00000 0.162586
Q495 8.00000 0.162586
Q496 0.00000 0.175019
Q496 8.00000 0.175019
Q497 0.00000 0.404703
Q497 8.00000 0.404703
Q498 0.00000 0.243029
Q498 8.00000 0.243029
Q499 0.00000 0.073126
Q499 8.00000 0.073126
Q500 0.00000 0.334129
Q500 8.00000 0.334129
Q501 0.00000 0.159574
Q501 8.00000 0.159574
Q502 0.00000 0.265798
Q502 8.00000 0.265798
Q503 0.00000 0.230966
Q503 8.00000 0.230966
Q504 0.00000 0.120606
Q504 8.00000 0.120606
Q505 0.00000 0.334537
Q505 8.00000 0.334537
Q506 0.00000 0.243884
Q506 8.00000 0.243884
Q507 0.00000 0.217488
Q507 8.00000 0.217488
Q508 0.00000 0.163600
Q508 8.00000 0.163600
Q509 0.00000 0.346253
Q509 8.00000 0.346253
Q510 0.00000 0.242502
Q510 8.00000 0.242502
Q511 0.00000 0.128046
Q511 8.00000 0.128046
Q512 0.00000 0.187323
Q512 8.00000 0.187323
Q513 0.00000 0.174850
Q513 8.00000 0.174850
Q514 0.00000 0.300259
Q514 8.00000 0.300259
Q515 0.00000 0.191469
Q515 8.00000 0.191469
Q516 0.00000 0.206712
Q516 8.00000 0.206712
Q517 0.00000 0.222325
Q517 8.00000 0.222325
Q518 0.00000 0.720630
Q518 8.00000 0.720630
Q519 0.00000 0.216911
Q519 8.00000 0.216911
Q520 0.00000 0.202268
Q520 8.00000 0.202268
Q521 0.00000 0.246886
Q521 8.00000 0.246886
Q522 0.00000 0.214798
Q522 8.00000 0.214798
Q523 0.00000 0.148970
Q523 8.00000 0.148970
Q524 0.00000 0.200118
Q524 8.00000 0.200118
Q525 0.00000 0.283908
Q525 8.00000 0.283908
Q526 0.00000 0.211150
Q526 8.00000 0.211150
Q527 0.00000 0.173478
Q527 8.00000 0.173478
Q528 0.00000 0.048312
Q528 8.00000 0.048312
Q529 0.00000 0.178810
Q529 8.00000 0.178810
Q530 0.00000 0.344369
Q530 8.00000 0.344369
Q531 0.00000 0.386631
Q531 8.00000 0.386631
Q532 0.00000 0.077039
Q532 8.00000 0.077039
Q533 0.00000 0.125219
Q533 8.00000 0.125219
Q534 0.00000 0.174447
Q534 8.00000 0.174447
Q535 0.00000 0.151829
Q535 8.00000 0.151829
Q536 0.00000 0.153056
Q536 8.00000 0.153056
Q537 0.00000 0.119450
Q537 8.00000 0.119450
Q538 0.00000 0.084546
Q538 8.00000 0.084546
Q539 0.00000 0.182485
Q539 8.00000 0.182485
Q540 0.00000 0.203130
Q540 8.00000 0.203130
Q541 0.00000 0.067289
Q541 8.00000 0.067289
Q542 0.00000 0.070738
Q542 8.00000 0.070738
Q543 0.00000 0.217999
Q543 8.00000 0.217999
Q544 0.00000 0.182899
Q544 8.00000 0.182899
Q545 0.00000 0.270194
Q545 8.00000 0.270194
Q546 0.00000 0.214949
Q546 8.00000 0.214949
Q547 0.00000 0.159809
Q547 8.00000 0.159809
Q548 0.00000 0.115258
Q548 8.00000 0.115258
Q549 0.00000 0.194479
Q549 8.00000 0.194479
Q550 0.00000 0.204322
Q550 8.00000 0.204322
Q551 0.00000 0.231944
Q551 8.00000 0.231944
Q552 0.00000 0.395383
Q552 8.00000 0.395383
Q553 0.00000 0.020815
Q553 8.00000 0.020815
Q554 0.00000 0.131204
Q554 8.00000 0.131204
Q555 0.00000 0.278671
Q555 8.00000 0.278671
Q556 0.00000 0.251419
Q556 8.00000 0.251419
Q557 0.00000 0.195757
Q557 8.00000 0.195757
Q558 0.00000 2.330795
Q558 8.00000 2.330795
Q559 0.00000 0.208932
Q559 8.00000 0.208932
Q560 0.00000 0.133599
Q560 8.00000 0.133599
Q561 0.00000 0.142375
Q561 8.00000 0.142375
Q562 0.00000 0.017706
Q562 8.00000 0.017706
Q563 0.00000 0.041716
Q563 8.00000 0.041716
Q564 0.00000 0.026518
Q564 8.00000 0.026518
Q565 0.00000 12.427027
Q565 8.00000 12.427027
Q566 0.00000 0.170410
Q566 8.00000 0.170410
Q567 0.00000 0.277135
Q567 8.00000 0.277135
Q568 0.00000 0.225433
Q568 8.00000 0.225433
Q569 0.00000 0.247079
Q569 8.00000 0.247079
Q570 0.00000 0.321874
Q570 8.00000 0.321874
Q571 0.00000 0.199894
Q571 8.00000 0.199894
Q572 0.00000 0.207456
Q572 8.00000 0.207456
Q573 0.00000 0.269207
Q573 8.00000 0.269207
Q574 0.00000 0.078236
Q574 8.00000 0.078236
Q575 0.00000 0.129345
Q575 8.00000 0.129345
Q576 0.00000 0.248592
Q576 8.00000 0.248592
Q577 0.00000 0.210702
Q577 8.00000 0.210702
Q578 0.00000 0.301694
Q578 8.00000 0.301694
Q579 0.00000 0.294024
Q579 8.00000 0.294024
Q580 0.00000 0.197634
Q580 8.00000 0.197634
Q581 0.00000 0.208349
Q581 8.00000 0.208349
Q582 0.00000 0.077351
Q582 8.00000 0.077351
Q583 0.00000 0.319754
Q583 8.00000 0.319754
Q584 0.00000 0.161940
Q584 8.00000 0.161940
Q585 0.00000 0.106217
Q585 8.00000 0.106217
Q586 0.00000 0.276914
Q586 8.00000 0.276914
Q587 0.00000 0.244263
Q587 8.00000 0.244263
Q588 0.00000 0.129072
Q588 8.00000 0.129072
Q589 0.00000 3.175872
Q589 8.00000 3.175872
Q590 0.00000 0.360668
Q590 8.00000 0.360668
Q591 0.00000 0.239450
Q591 8.00000 0.239450
Q592 0.00000 0.266809
Q592 8.00000 0.266809
Q593 0.00000 0.204809
Q593 8.00000 0.204809
Q594 0.00000 0.249462
Q594 8.00000 0.249462
Q595 0.00000 0.147581
Q595 8.00000 0.147581
Q596 0.00000 0.248549
Q596 8.00000 0.248549
Q597 0.00000 0.120620
Q597 8.00000 0.120620
Q598 0.00000 0.331544
Q598 8.00000 0.331544
Q599 0.00000 0.114054
Q599 8.00000 0.114054
Q600 0.00000 0.158282
Q600 8.00000 0.158282
Q601 0.00000 0.264486
Q601 8.00000 0.264486
Q602 0.00000 0.161332
Q602 8.00000 0.161332
Q603 0.00000 0.072995
Q603 8.00000 0.072995
Q604 0.00000 0.017564
Q604 8.00000 0.017564
Q605 0.00000 0.071724
Q605 8.00000 0.071724
Q606 0.00000 0.026643
Q606 8.00000 0.026643
Q607 0.00000 0.121186
Q607 8.00000 0.121186
Q608 0.00000 0.291670
Q608 8.00000 0.291670
Q609 0.00000 0.056950
Q609 8.00000 0.056950
Q610 0.00000 0.230649
Q610 8.00000 0.230649
Q611 0.00000 0.376939
Q611 8.00000 0.376939
Q612 0.00000 0.255092
Q612 8.00000 0.255092
Q613 0.00000 0.210922
Q613 8.00000 0.210922
Q614 0.00000 0.143910
Q614 8.00000 0.143910
Q615 0.00000 0.245148
Q615 8.00000 0.245148
Q616 0.00000 0.326812
Q616 8.00000 0.326812
Q617 0.00000 0.151916
Q617 8.00000 0.151916
Q618 0.00000 0.090305
Q618 8.00000 0.090305
Q619 0.00000 0.270454
Q619 8.00000 0.270454
Q620 0.00000 0.305664
Q620 8.00000 0.305664
Q621 0.00000 0.167549
Q621 8.00000 0.167549
Q622 0.00000 0.356921
Q622 8.00000 0.356921
Q623 0.00000 0.155620
Q623 8.00000 0.155620
Q624 0.00000 0.177699
Q624 8.00000 0.177699
Q625 0.00000 0.335510
Q625 8.00000 0.335510
Q626 0.00000 0.474097
Q626 8.00000 0.474097
Q627 0.00000 0.401118
Q627 8.00000 0.401118
Q628 0.00000 0.147935
Q628 8.00000 0.147935
Q629 0.00000 0.157201
Q629 8.00000 0.157201
Q630 0.00000 0.365508
Q630 8.00000 0.365508
Q631 0.00000 0.060485
Q631 8.00000 0.060485
Q632 0.00000 0.246247
Q632 8.00000 0.246247
Q633 0.00000 0.137515
Q633 8.00000 0.137515
Q634 0.00000 0.370965
Q634 8.00000 0.370965
Q635 0.00000 0.171423
Q635 8.00000 0.171423
Q636 0.00000 0.224862
Q636 8.00000 0.224862
Q637 0.00000 0.173642
Q637 8.00000 0.173642
Q638 0.00000 0.114346
Q638 8.00000 0.114346
Q639 0.00000 0.308122
Q639 8.00000 0.308122
Q640 0.00000 0.256635
Q640 8.00000 0.256635
Q641 0.00000 2.336756
Q641 8.00000 2.336756
Q642 0.00000 0.143393
Q642 8.00000 0.143393
Q643 0.00000 0.025548
Q643 8.00000 0.025548
Q644 0.00000 0.274865
Q644 8.00000 0.274865
Q645 0.00000 0.222817
Q645 8.00000 0.222817
Q646 0.00000 0.202583
Q646 8.00000 0.202583
Q647 0.00000 0.050625
Q647 8.00000 0.050625
Q648 0.00000 0.022922
Q648 8.00000 0.022922
Q649 0.00000 0.270198
Q649 8.00000 0.270198
Q650 0.00000 0.248377
Q650 8.00000 0.248377
Q651 0.00000 0.259992
Q651 8.00000 0.259992
Q652 0.00000 0.208190
Q652 8.00000 0.208190
Q653 0.00000 0.251182
Q653 8.00000 0.251182
Q654 0.00000 0.972009
Q654 8.00000 0.972009
Q655 0.00000 0.266131
Q655 8.00000 0.266131
Q656 0.00000 0.269533
Q656 8.00000 0.269533
Q657 0.00000 0.193548
Q657 8.00000 0.193548
Q658 0.00000 0.253851
Q658 8.00000 0.253851
Q659 0.00000 0.168097
Q659 8.00000 0.168097
Q660 0.00000 0.150104
Q660 8.00000 0.150104
Q661 0.00000 0.273243
Q661 8.00000 0.273243
Q662 0.00000 0.169319
Q662 8.00000 0.169319
Q663 0.00000 0.271518
Q663 8.00000 0.271518
Q664 0.00000 0.437481
Q664 8.00000 0.437481
Q665 0.00000 0.303648
Q665 8.00000 0.303648
Q666 0.00000 0.180405
Q666 8.00000 0.180405
Q667 0.00000 0.146729
Q667 8.00000 0.146729
Q668 0.00000 0.089252
Q668 8.00000 0.089252
Q669 0.00000 0.089631
Q669 8.00000 0.089631
Q670 0.00000 0.209177
Q670 8.00000 0.209177
Q671 0.00000 0.202084
Q671 8.00000 0.202084
Q672 0.00000 0.182237
Q672 8.00000 0.182237
Q673 0.00000 0.352690
Q673 8.00000 0.352690
Q674 0.00000 0.317588
Q674 8.00000 0.317588
Q675 0.00000 0.190686
Q675 8.00000 0.190686
Q676 0.00000 0.122666
Q676 8.00000 0.122666
Q677 0.00000 0.202418
Q677 8.00000 0.202418
Q678 0.00000 0.167896
Q678 8.00000 0.167896
Q679 0.00000 0.157114
Q679 8.00000 0.157114
Q680 0.00000 0.230303
Q680 8.00000 0.230303
Q681 0.00000 0.010514
Q681 8.00000 0.010514
Q682 0.00000 0.214888
Q682 8.00000 0.214888
Q683 0.00000 0.263956
Q683 8.00000 0.263956
Q684 0.00000 0.140467
Q684 8.00000 0.140467
Q685 0.00000 0.024086
Q685 8.00000 0.024086
Q686 0.00000 0.206091
Q686 8.00000 0.206091
Q687 0.00000 0.199097
Q687 8.00000 0.199097
Q688 0.00000 0.421833
Q688 8.00000 0.421833
Q689 0.00000 0.121195
Q689 8.00000 0.121195
Q690 0.00000 0.235576
Q690 8.00000 0.235576
Q691 0.00000 0.431060
Q691 8.00000 0.431060
Q692 0.00000 0.298210
Q692 8.00000 0.298210
Q693 0.00000 0.147227
Q693 8.00000 0.147227
Q694 0.00000 0.289591
Q694 8.00000 0.289591
Q695 0.00000 0.058260
Q695 8.00000 0.058260
Q696 0.00000 0.218297
Q696 8.00000 0.218297
Q697 0.00000 0.232538
Q697 8.00000 0.232538
Q698 0.00000 0.185799
Q698 8.00000 0.185799
Q699 0.00000 0.332134
Q699 8.00000 0.332134
Q700 0.00000 0.197700
Q700 8.00000 0.197700
Q701 0.00000 0.152270
Q701 8.00000 0.152270
Q702 0.00000 0.307041
Q702 8.00000 0.307041
Q703 0.00000 0.321394
Q703 8.00000 0.321394
Q704 0.00000 0.262762
Q704 8.00000 0.262762
Q705 0.00000 0.193504
Q705 8.00000 0.193504
Q706 0.00000 0.246434
Q706 8.00000 0.246434
Q707 0.00000 0.359714
Q707 8.00000 0.359714
Q708 0.00000 0.283071
Q708 8.00000 0.283071
Q709 0.00000 0.259325
Q709 8.00000 0.259325
Q710 0.00000 0.217895
Q710 8.00000 0.217895
Q711 0.00000 0.172000
Q711 8.00000 0.172000
Q712 0.00000 0.141027
Q712 8.00000 0.141027
Q713 0.00000 0.109250
Q713 8.00000 0.109250
Q714 0.00000 0.055117
Q714 8.00000 0.055117
Q715 0.00000 0.220211
Q715 8.00000 0.220211
Q716 0.00000 0.204801
Q716 8.00000 0.204801
Q717 0.00000 0.283073
Q717 8.00000 0.283073
Q718 0.00000 0.212487
Q718 8.00000 0.212487
Q719 0.00000 0.234817
Q719 8.00000 0.234817
Q720 0.00000 0.321755
Q720 8.00000 0.321755
Q721 0.00000 0.118130
Q721 8.00000 0.118130
Q722 0.00000 0.188713
Q722 8.00000 0.188713
Q723 0.00000 0.306947
Q723 8.00000 0.306947
Q724 0.00000 0.245180
Q724 8.00000 0.245180
Q725 0.00000 0.372327
Q725 8.00000 0.372327
Q726 0.00000 0.084738
Q726 8.00000 0.084738
Q727 0.00000 0.239384
Q727 8.00000 0.239384
Q728 0.00000 0.178605
Q728 8.00000 0.178605
Q729 0.00000 0.206237
Q729 8.00000 0.206237
Q730 0.00000 0.057899
Q730 8.00000 0.057899
Q731 0.00000 0.024322
Q731 8.00000 0.024322
Q732 0.00000 1.151117
Q732 8.00000 1.151117
Q733 0.00000 0.235484
Q733 8.00000 0.235484
Q734 0.00000 0.189379
Q734 8.00000 0.189379
Q735 0.00000 0.060540
Q735 8.00000 0.060540
Q736 0.00000 0.189581
Q736 8.00000 0.189581
Q737 0.00000 0.073257
Q737 8.00000 0.073257
Q738 0.00000 0.113596
Q738 8.00000 0.113596
Q739 0.00000 0.006649
Q739 8.00000 0.006649
Q740 0.00000 0.237116
Q740 8.00000 0.237116
Q741 0.00000 0.061455
Q741 8.00000 0.061455
Q742 0.00000 0.341898
Q742 8.00000 0.341898
Q743 0.00000 0.391925
Q743 8.00000 0.391925
Q744 0.00000 0.335953
Q744 8.00000 0.335953
Q745 0.00000 0.210960
Q745 8.00000 0.210960
Q746 0.00000 0.035175
Q746 8.00000 0.035175
Q747 0.00000 0.238994
Q747 8.00000 0.238994
Q748 0.00000 0.107946
Q748 8.00000 0.107946
Q749 0.00000 0.161578
Q749 8.00000 0.161578
Q750 0.00000 0.104080
Q750 8.00000 0.104080
Q751 0.00000 0.223315
Q751 8.00000 0.223315
Q752 0.00000 0.101663
Q752 8.00000 0.101663
Q753 0.00000 0.273412
Q753 8.00000 0.273412
Q754 0.00000 0.112150
Q754 8.00000 0.112150
Q755 0.00000 0.257772
Q755 8.00000 0.257772
Q756 0.00000 21.896038
Q756 8.00000 21.896038
Q757 0.00000 0.215848
Q757 8.00000 0.215848
Q758 0.00000 0.078090
Q758 8.00000 0.078090
Q759 0.00000 0.228243
Q759 8.00000 0.228243
Q760 0.00000 0.259184
Q760 8.00000 0.259184
Q761 0.00000 0.118854
Q761 8.00000 0.118854
Q762 0.00000 0.344439
Q762 8.00000 0.344439
Q763 0.00000 0.169027
Q763 8.00000 0.169027
Q764 0.00000 0.243193
Q764 8.00000 0.243193
Q765 0.00000 0.255525
Q765 8.00000 0.255525
Q766 0.00000 0.247962
Q766 8.00000 0.247962
Q767 0.00000 0.169083
Q767 8.00000 0.169083
Q768 0.00000 0.181930
Q768 8.00000 0.181930
Q769 0.00000 0.240896
Q769 8.00000 0.240896
Q770 0.00000 0.299268
Q770 8.00000 0.299268
Q771 0.00000 0.227545
Q771 8.00000 0.227545
Q772 0.00000 0.240589
Q772 8.00000 0.240589
Q773 0.00000 0.243746
Q773 8.00000 0.243746
Q774 0.00000 0.040586
Q774 8.00000 0.040586
Q775 0.00000 0.164574
Q775 8.00000 0.164574
Q776 0.00000 0.162661
Q776 8.00000 0.162661
Q777 0.00000 0.219585
Q777 8.00000 0.219585
Q778 0.00000 0.170129
Q778 8.00000 0.170129
Q779 0.00000 0.042483
Q779 8.00000 0.042483
Q780 0.00000 0.276672
Q780 8.00000 0.276672
Q781 0.00000 0.047684
Q781 8.00000 0.047684
Q782 0.00000 0.297510
Q782 8.00000 0.297510
Q783 0.00000 0.189208
Q783 8.00000 0.189208
Q784 0.00000 0.160607
Q784 8.00000 0.160607
Q785 0.00000 0.137609
Q785 8.00000 0.137609
Q786 0.00000 0.325934
Q786 8.00000 0.325934
Q787 0.00000 0.152441
Q787 8.00000 0.152441
Q788 0.00000 0.204899
Q788 8.00000 0.204899
Q789 0.00000 0.364794
Q789 8.00000 0.364794
Q790 0.00000 0.298198
Q790 8.00000 0.298198
Q791 0.00000 0.233378
Q791 8.00000 0.233378
Q792 0.00000 0.181467
Q792 8.00000 0.181467
Q793 0.00000 0.270086
Q793 8.00000 0.270086
Q794 0.00000 0.297328
Q794 8.00000 0.297328
Q795 0.00000 0.056384
Q795 8.00000 0.056384
Q796 0.00000 0.158812
Q796 8.00000 0.158812
Q797 0.00000 0.112311
Q797 8.00000 0.112311
Q798 0.00000 0.110503
Q798 8.00000 0.110503
Q799 0.00000 0.238382
Q799 8.00000 0.238382
Q800 0.00000 0.080379
Q800 8.00000 0.080379
Q801 0.00000 0.246429
Q801 8.00000 0.246429
Q802 0.00000 0.367694
Q802 8.00000 0.367694
Q803 0.00000 0.141280
Q803 8.00000 0.141280
Q804 0.00000 0.148523
Q804 8.00000 0.148523
Q805 0.00000 0.249209
Q805 8.00000 0.249209
Q806 0.00000 0.214160
Q806 8.00000 0.214160
Q807 0.00000 0.222889
Q807 8.00000 0.222889
Q808 0.00000 0.178941
Q808 8.00000 0.178941
Q809 0.00000 0.097220
Q809 8.00000 0.097220
Q810 0.00000 0.040323
Q810 8.00000 0.040323
Q811 0.00000 0.005330
Q811 8.00000 0.005330
Q812 0.00000 3.301639
Q812 8.00000 3.301639
Q813 0.00000 0.168840
Q813 8.00000 0.168840
Q814 0.00000 0.205687
Q814 8.00000 0.205687
Q815 0.00000 0.244258
Q815 8.00000 0.244258
Q816 0.00000 0.322163
Q816 8.00000 0.322163
Q817 0.00000 0.362942
Q817 8.00000 0.362942
Q818 0.00000 0.370243
Q818 8.00000 0.370243
Q819 0.00000 0.244013
Q819 8.00000 0.244013
Q820 0.00000 0.110383
Q820 8.00000 0.110383
Q821 0.00000 0.203044
Q821 8.00000 0.203044
Q822 0.00000 0.183868
Q822 8.00000 0.183868
Q823 0.00000 0.354725
Q823 8.00000 0.354725
Q824 0.00000 0.379516
Q824 8.00000 0.379516
Q825 0.00000 0.031813
Q825 8.00000 0.031813
Q826 0.00000 0.243844
Q826 8.00000 0.243844
Q827 0.00000 0.545321
Q827 8.00000 0.545321
Q828 0.00000 0.191544
Q828 8.00000 0.191544
Q829 0.00000 0.339639
Q829 8.00000 0.339639
Q830 0.00000 0.439073
Q830 8.00000 0.439073
Q831 0.00000 0.144014
Q831 8.00000 0.144014
Q832 0.00000 0.121350
Q832 8.00000 0.121350
Q833 0.00000 0.184303
Q833 8.00000 0.184303
Q834 0.00000 0.289438
Q834 8.00000 0.289438
Q835 0.00000 0.227407
Q835 8.00000 0.227407
Q836 0.00000 0.364306
Q836 8.00000 0.364306
Q837 0.00000 0.077725
Q837 8.00000 0.077725
Q838 0.00000 0.346504
Q838 8.00000 0.346504
Q839 0.00000 0.138780
Q839 8.00000 0.138780
Q840 0.00000 0.281485
Q840 8.00000 0.281485
Q841 0.00000 0.260066
Q841 8.00000 0.260066
Q842 0.00000 0.235369
Q842 8.00000 0.235369
Q843 0.00000 0.254948
Q843 8.00000 0.254948
Q844 0.00000 0.147391
Q844 8.00000 0.147391
Q845 0.00000 0.396746
Q845 8.00000 0.396746
Q846 0.00000 0.297286
Q846 8.00000 0.297286
Q847 0.00000 0.318415
Q847 8.00000 0.318415
Q848 0.00000 0.200570
Q848 8.00000 0.200570
Q849 0.00000 0.168815
Q849 8.00000 0.168815
Q850 0.00000 0.163615
Q850 8.00000 0.163615
Q851 0.00000 0.261059
Q851 8.00000 0.261059
Q852 0.00000 0.114347
Q852 8.00000 0.114347
Q853 0.00000 0.170000
Q853 8.00000 0.170000
Q854 0.00000 0.077079
Q854 8.00000 0.077079
Q855 0.00000 0.126144
Q855 8.00000 0.126144
Q856 0.00000 0.289329
Q856 8.00000 0.289329
Q857 0.00000 0.349735
Q857 8.00000 0.349735
Q858 0.00000 0.328968
Q858 8.00000 0.328968
Q859 0.00000 0.063612
Q859 8.00000 0.063612
Q860 0.00000 0.468128
Q860 8.00000 0.468128
Q861 0.00000 0.248277
Q861 8.00000 0.248277
Q862 0.00000 0.272880
Q862 8.00000 0.272880
Q863 0.00000 0.123066
Q863 8.00000 0.123066
Q864 0.00000 0.065156
Q864 8.00000 0.065156
Q865 0.00000 4.816894
Q865 8.00000 4.816894
Q866 0.00000 0.298748
Q866 8.00000 0.298748
Q867 0.00000 0.104866
Q867 8.00000 0.104866
Q868 0.00000 0.200532
Q868 8.00000 0.200532
Q869 0.00000 0.045290
Q869 8.00000 0.045290
Q870 0.00000 0.557604
Q870 8.00000 0.557604
Q871 0.00000 0.243436
Q871 8.00000 0.243436
Q873 0.00000 0.068285
Q873 8.00000 0.068285
Q874 0.00000 0.216933
Q874 8.00000 0.216933
Q875 0.00000 0.253782
Q875 8.00000 0.253782
Q876 0.00000 0.394271
Q876 8.00000 0.394271
Q877 0.00000 0.070852
Q877 8.00000 0.070852
Q878 0.00000 0.148183
Q878 8.00000 0.148183
Q879 0.00000 0.357361
Q879 8.00000 0.357361
Q880 0.00000 0.215948
Q880 8.00000 0.215948
Q881 0.00000 0.335054
Q881 8.00000 0.335054
Q882 0.00000 0.312040
Q882 8.00000 0.312040

[INFLOWS]
;;Node Constituent TimeSeries Type Mfactor Sfactor Baseline
N0 FLOW Q0 FLOW 1.0 1.0 0
N1 FLOW Q1 FLOW 1.0 1.0 0
MH4454411 FLOW Q2 FLOW 1.0 1.0 0
N3 FLOW Q3 FLOW 1.0 1.0 0
N4 FLOW Q4 FLOW 1.0 1.0 0
MH4450314 FLOW Q5 FLOW 1.0 1.0 0
N8 FLOW Q6 FLOW 1.0 1.0 0
N9 FLOW Q7 FLOW 1.0 1.0 0
N10 FLOW Q8 FLOW 1.0 1.0 0
MH4428367 FLOW Q9 FLOW 1.0 1.0 0
MH4428606 FLOW Q10 FLOW 1.0 1.0 0
N13 FLOW Q11 FLOW 1.0 1.0 0
MH4454744 FLOW Q12 FLOW 1.0 1.0 0
N15 FLOW Q13 FLOW 1.0 1.0 0
N18 FLOW Q14 FLOW 1.0 1.0 0
MH4452397 FLOW Q15 FLOW 1.0 1.0 0
N20 FLOW Q16 FLOW 1.0 1.0 0
MH4453133 FLOW Q17 FLOW 1.0 1.0 0
N22 FLOW Q18 FLOW 1.0 1.0 0
MH4447602 FLOW Q19 FLOW 1.0 1.0 0
MH4429312 FLOW Q20 FLOW 1.0 1.0 0
N25 FLOW Q21 FLOW 1.0 1.0 0
N26 FLOW Q22 FLOW 1.0 1.0 0
MH4453788 FLOW Q23 FLOW 1.0 1.0 0
N28 FLOW Q24 FLOW 1.0 1.0 0
MH4456108 FLOW Q25 FLOW 1.0 1.0 0
N30 FLOW Q26 FLOW 1.0 1.0 0
N31 FLOW Q27 FLOW 1.0 1.0 0
N32 FLOW Q28 FLOW 1.0 1.0 0
N33 FLOW Q29 FLOW 1.0 1.0 0
N34 FLOW Q30 FLOW 1.0 1.0 0
N35 FLOW Q31 FLOW 1.0 1.0 0
N38 FLOW Q32 FLOW 1.0 1.0 0
MH4454209 FLOW Q33 FLOW 1.0 1.0 0
MH1624017 FLOW Q34 FLOW 1.0 1.0 0
MH1623826 FLOW Q35 FLOW 1.0 1.0 0
MH4429136 FLOW Q36 FLOW 1.0 1.0 0
N43 FLOW Q37 FLOW 1.0 1.0 0
MH4501201 FLOW Q38 FLOW 1.0 1.0 0
N45 FLOW Q39 FLOW 1.0 1.0 0
N46 FLOW Q40 FLOW 1.0 1.0 0
N47 FLOW Q41 FLOW 1.0 1.0 0
MH4501544 FLOW Q42 FLOW 1.0 1.0 0
N49 FLOW Q43 FLOW 1.0 1.0 0
N50 FLOW Q44 FLOW 1.0 1.0 0
N51 FLOW Q45 FLOW 1.0 1.0 0
MH4454640 FLOW Q46 FLOW 1.0 1.0 0
N53 FLOW Q47 FLOW 1.0 1.0 0
MH4453512 FLOW Q48 FLOW 1.0 1.0 0
MH4452154 FLOW Q49 FLOW 1.0 1.0 0
MH4452217 FLOW Q50 FLOW 1.0 1.0 0
N59 FLOW Q51 FLOW 1.0 1.0 0
MH4446824 FLOW Q52 FLOW 1.0 1.0 0
N61 FLOW Q53 FLOW 1.0 1.0 0
N62 FLOW Q54 FLOW 1.0 1.0 0
N63 FLOW Q55 FLOW 1.0 1.0 0
N64 FLOW Q56 FLOW 1.0 1.0 0
MH4453931 FLOW Q57 FLOW 1.0 1.0 0
N66 FLOW Q58 FLOW 1.0 1.0 0
N67 FLOW Q59 FLOW 1.0 1.0 0
MH4456468 FLOW Q60 FLOW 1.0 1.0 0
N69 FLOW Q61 FLOW 1.0 1.0 0
MH4502097 FLOW Q62 FLOW 1.0 1.0 0
N71 FLOW Q63 FLOW 1.0 1.0 0
N72 FLOW Q64 FLOW 1.0 1.0 0
N73 FLOW Q65 FLOW 1.0 1.0 0
MH4447369 FLOW Q66 FLOW 1.0 1.0 0
MH4448345 FLOW Q67 FLOW 1.0 1.0 0
MH4448419 FLOW Q68 FLOW 1.0 1.0 0
N77 FLOW Q69 FLOW 1.0 1.0 0
MH4449083 FLOW Q70 FLOW 1.0 1.0 0
N79 FLOW Q71 FLOW 1.0 1.0 0
MH4499116 FLOW Q72 FLOW 1.0 1.0 0
N81 FLOW Q73 FLOW 1.0 1.0 0
N82 FLOW Q74 FLOW 1.0 1.0 0
N83 FLOW Q75 FLOW 1.0 1.0 0
MH4454674 FLOW Q76 FLOW 1.0 1.0 0
N85 FLOW Q77 FLOW 1.0 1.0 0
MH4427688 FLOW Q78 FLOW 1.0 1.0 0
N87 FLOW Q79 FLOW 1.0 1.0 0
MH4448753 FLOW Q80 FLOW 1.0 1.0 0
N89 FLOW Q81 FLOW 1.0 1.0 0
MH1627682 FLOW Q82 FLOW 1.0 1.0 0
MH4452538 FLOW Q83 FLOW 1.0 1.0 0
MH5118586 FLOW Q84 FLOW 1.0 1.0 0
MH4452724 FLOW Q85 FLOW 1.0 1.0 0
MH4448853 FLOW Q86 FLOW 1.0 1.0 0
N97 FLOW Q87 FLOW 1.0 1.0 0
N98 FLOW Q88 FLOW 1.0 1.0 0
MH4500422 FLOW Q89 FLOW 1.0 1.0 0
N100 FLOW Q90 FLOW 1.0 1.0 0
N101 FLOW Q91 FLOW 1.0 1.0 0
MH4449806 FLOW Q92 FLOW 1.0 1.0 0
MH4450137 FLOW Q93 FLOW 1.0 1.0 0
MH4428117 FLOW Q94 FLOW 1.0 1.0 0
MH4428139 FLOW Q95 FLOW 1.0 1.0 0
N106 FLOW Q96 FLOW 1.0 1.0 0
MH4455909 FLOW Q97 FLOW 1.0 1.0 0
N108 FLOW Q98 FLOW 1.0 1.0 0
N109 FLOW Q99 FLOW 1.0 1.0 0
MH4451823 FLOW Q100 FLOW 1.0 1.0 0
MH4450787 FLOW Q101 FLOW 1.0 1.0 0
N112 FLOW Q102 FLOW 1.0 1.0 0
N113 FLOW Q103 FLOW 1.0 1.0 0
MH4428026 FLOW Q104 FLOW 1.0 1.0 0
MH4501866 FLOW Q105 FLOW 1.0 1.0 0
N116 FLOW Q106 FLOW 1.0 1.0 0
N119 FLOW Q107 FLOW 1.0 1.0 0
MH1627986 FLOW Q108 FLOW 1.0 1.0 0
MH4499632 FLOW Q109 FLOW 1.0 1.0 0
N122 FLOW Q110 FLOW 1.0 1.0 0
MH4429035 FLOW Q111 FLOW 1.0 1.0 0
N124 FLOW Q112 FLOW 1.0 1.0 0
N125 FLOW Q113 FLOW 1.0 1.0 0
MH4449704 FLOW Q114 FLOW 1.0 1.0 0
MH4449118 FLOW Q115 FLOW 1.0 1.0 0
N128 FLOW Q116 FLOW 1.0 1.0 0
MH1629281 FLOW Q117 FLOW 1.0 1.0 0
MH4454718 FLOW Q118 FLOW 1.0 1.0 0
N131 FLOW Q119 FLOW 1.0 1.0 0
MH4451287 FLOW Q120 FLOW 1.0 1.0 0
N133 FLOW Q121 FLOW 1.0 1.0 0
N134 FLOW Q122 FLOW 1.0 1.0 0
N137 FLOW Q123 FLOW 1.0 1.0 0
MH4450219 FLOW Q124 FLOW 1.0 1.0 0
N139 FLOW Q125 FLOW 1.0 1.0 0
MH4449321 FLOW Q126 FLOW 1.0 1.0 0
MH4448509 FLOW Q127 FLOW 1.0 1.0 0
N142 FLOW Q128 FLOW 1.0 1.0 0
N143 FLOW Q129 FLOW 1.0 1.0 0
MH4428524 FLOW Q130 FLOW 1.0 1.0 0
N145 FLOW Q131 FLOW 1.0 1.0 0
MH1627084 FLOW Q132 FLOW 1.0 1.0 0
N147 FLOW Q133 FLOW 1.0 1.0 0
N148 FLOW Q134 FLOW 1.0 1.0 0
N149 FLOW Q135 FLOW 1.0 1.0 0
N150 FLOW Q136 FLOW 1.0 1.0 0
N151 FLOW Q137 FLOW 1.0 1.0 0
MH4455762 FLOW Q138 FLOW 1.0 1.0 0
N153 FLOW Q139 FLOW 1.0 1.0 0
N154 FLOW Q140 FLOW 1.0 1.0 0
N155 FLOW Q141 FLOW 1.0 1.0 0
MH4452721 FLOW Q142 FLOW 1.0 1.0 0
N157 FLOW Q143 FLOW 1.0 1.0 0
N158 FLOW Q144 FLOW 1.0 1.0 0
N159 FLOW Q145 FLOW 1.0 1.0 0
MH4447128 FLOW Q146 FLOW 1.0 1.0 0
MH4447726 FLOW Q147 FLOW 1.0 1.0 0
N162 FLOW Q148 FLOW 1.0 1.0 0
N163 FLOW Q149 FLOW 1.0 1.0 0
N166 FLOW Q150 FLOW 1.0 1.0 0
MH4428268 FLOW Q151 FLOW 1.0 1.0 0
N168 FLOW Q152 FLOW 1.0 1.0 0
MH4428636 FLOW Q153 FLOW 1.0 1.0 0
N170 FLOW Q154 FLOW 1.0 1.0 0
N171 FLOW Q155 FLOW 1.0 1.0 0
N172 FLOW Q156 FLOW 1.0 1.0 0
MH4452977 FLOW Q157 FLOW 1.0 1.0 0
N176 FLOW Q158 FLOW 1.0 1.0 0
MH1632309 FLOW Q159 FLOW 1.0 1.0 0
N178 FLOW Q160 FLOW 1.0 1.0 0
MH4500035 FLOW Q161 FLOW 1.0 1.0 0
N180 FLOW Q162 FLOW 1.0 1.0 0
N181 FLOW Q163 FLOW 1.0 1.0 0
MH4451759 FLOW Q164 FLOW 1.0 1.0 0
N184 FLOW Q166 FLOW 1.0 1.0 0
MH4454490 FLOW Q167 FLOW 1.0 1.0 0
N186 FLOW Q168 FLOW 1.0 1.0 0
N187 FLOW Q169 FLOW 1.0 1.0 0
N188 FLOW Q170 FLOW 1.0 1.0 0
MH4447880 FLOW Q171 FLOW 1.0 1.0 0
MH4499417 FLOW Q172 FLOW 1.0 1.0 0
N191 FLOW Q173 FLOW 1.0 1.0 0
N192 FLOW Q174 FLOW 1.0 1.0 0
MH4453579 FLOW Q175 FLOW 1.0 1.0 0
N194 FLOW Q176 FLOW 1.0 1.0 0
MH4451531 FLOW Q177 FLOW 1.0 1.0 0
MH4449785 FLOW Q178 FLOW 1.0 1.0 0
N197 FLOW Q179 FLOW 1.0 1.0 0
N198 FLOW Q180 FLOW 1.0 1.0 0
MH4447416 FLOW Q181 FLOW 1.0 1.0 0
N202 FLOW Q182 FLOW 1.0 1.0 0
MH4453124 FLOW Q183 FLOW 1.0 1.0 0
MH5228371 FLOW Q184 FLOW 1.0 1.0 0
N205 FLOW Q185 FLOW 1.0 1.0 0
N206 FLOW Q186 FLOW 1.0 1.0 0
MH6153571 FLOW Q187 FLOW 1.0 1.0 0
N208 FLOW Q188 FLOW 1.0 1.0 0
N209 FLOW Q189 FLOW 1.0 1.0 0
N210 FLOW Q190 FLOW 1.0 1.0 0
N211 FLOW Q191 FLOW 1.0 1.0 0
N212 FLOW Q192 FLOW 1.0 1.0 0
MH4427425 FLOW Q193 FLOW 1.0 1.0 0
N216 FLOW Q194 FLOW 1.0 1.0 0
MH7465841 FLOW Q195 FLOW 1.0 1.0 0
N220 FLOW Q196 FLOW 1.0 1.0 0
N221 FLOW Q197 FLOW 1.0 1.0 0
N222 FLOW Q198 FLOW 1.0 1.0 0
MH4451971 FLOW Q199 FLOW 1.0 1.0 0
N224 FLOW Q200 FLOW 1.0 1.0 0
N225 FLOW Q201 FLOW 1.0 1.0 0
MH4450757 FLOW Q202 FLOW 1.0 1.0 0
N228 FLOW Q203 FLOW 1.0 1.0 0
N229 FLOW Q204 FLOW 1.0 1.0 0
N230 FLOW Q205 FLOW 1.0 1.0 0
N231 FLOW Q206 FLOW 1.0 1.0 0
N232 FLOW Q207 FLOW 1.0 1.0 0
MH4447684 FLOW Q208 FLOW 1.0 1.0 0
N234 FLOW Q209 FLOW 1.0 1.0 0
MH4449173 FLOW Q210 FLOW 1.0 1.0 0
N238 FLOW Q211 FLOW 1.0 1.0 0
N239 FLOW Q212 FLOW 1.0 1.0 0
N240 FLOW Q213 FLOW 1.0 1.0 0
MH4451058 FLOW Q214 FLOW 1.0 1.0 0
MH4452032 FLOW Q215 FLOW 1.0 1.0 0
MH4451840 FLOW Q216 FLOW 1.0 1.0 0
N244 FLOW Q217 FLOW 1.0 1.0 0
MH1790845 FLOW Q218 FLOW 1.0 1.0 0
N246 FLOW Q219 FLOW 1.0 1.0 0
N247 FLOW Q220 FLOW 1.0 1.0 0
N248 FLOW Q221 FLOW 1.0 1.0 0
MH4456553 FLOW Q222 FLOW 1.0 1.0 0
N250 FLOW Q223 FLOW 1.0 1.0 0
N251 FLOW Q224 FLOW 1.0 1.0 0
MH4449510 FLOW Q225 FLOW 1.0 1.0 0
MH4428713 FLOW Q226 FLOW 1.0 1.0 0
MH4428995 FLOW Q227 FLOW 1.0 1.0 0
N255 FLOW Q228 FLOW 1.0 1.0 0
MH4447351 FLOW Q229 FLOW 1.0 1.0 0
MH4450170 FLOW Q230 FLOW 1.0 1.0 0
N258 FLOW Q231 FLOW 1.0 1.0 0
MH4500254 FLOW Q232 FLOW 1.0 1.0 0
N260 FLOW Q233 FLOW 1.0 1.0 0
N261 FLOW Q234 FLOW 1.0 1.0 0
MH4448662 FLOW Q235 FLOW 1.0 1.0 0
N263 FLOW Q236 FLOW 1.0 1.0 0
MH4429357 FLOW Q237 FLOW 1.0 1.0 0
N265 FLOW Q238 FLOW 1.0 1.0 0
MH5286735 FLOW Q239 FLOW 1.0 1.0 0
N267 FLOW Q240 FLOW 1.0 1.0 0
N268 FLOW Q241 FLOW 1.0 1.0 0
N269 FLOW Q242 FLOW 1.0 1.0 0
N270 FLOW Q243 FLOW 1.0 1.0 0
N271 FLOW Q244 FLOW 1.0 1.0 0
N272 FLOW Q245 FLOW 1.0 1.0 0
MH4449860 FLOW Q246 FLOW 1.0 1.0 0
N274 FLOW Q247 FLOW 1.0 1.0 0
N275 FLOW Q248 FLOW 1.0 1.0 0
N276 FLOW Q249 FLOW 1.0 1.0 0
N277 FLOW Q250 FLOW 1.0 1.0 0
N278 FLOW Q251 FLOW 1.0 1.0 0
N279 FLOW Q252 FLOW 1.0 1.0 0
N280 FLOW Q253 FLOW 1.0 1.0 0
N281 FLOW Q254 FLOW 1.0 1.0 0
MH4452919 FLOW Q255 FLOW 1.0 1.0 0
MH4450449 FLOW Q256 FLOW 1.0 1.0 0
MH4450581 FLOW Q257 FLOW 1.0 1.0 0
N285 FLOW Q258 FLOW 1.0 1.0 0
MH6042164 FLOW Q259 FLOW 1.0 1.0 0
N287 FLOW Q260 FLOW 1.0 1.0 0
MH1625395 FLOW Q261 FLOW 1.0 1.0 0
MH4447397 FLOW Q262 FLOW 1.0 1.0 0
MH5241467 FLOW Q263 FLOW 1.0 1.0 0
N293 FLOW Q264 FLOW 1.0 1.0 0
N294 FLOW Q265 FLOW 1.0 1.0 0
N295 FLOW Q266 FLOW 1.0 1.0 0
N296 FLOW Q267 FLOW 1.0 1.0 0
N297 FLOW Q268 FLOW 1.0 1.0 0
N298 FLOW Q269 FLOW 1.0 1.0 0
N299 FLOW Q270 FLOW 1.0 1.0 0
N300 FLOW Q271 FLOW 1.0 1.0 0
MH4455121 FLOW Q272 FLOW 1.0 1.0 0
N302 FLOW Q273 FLOW 1.0 1.0 0
N303 FLOW Q274 FLOW 1.0 1.0 0
MH4428765 FLOW Q275 FLOW 1.0 1.0 0
N307 FLOW Q276 FLOW 1.0 1.0 0
MH1624138 FLOW Q277 FLOW 1.0 1.0 0
MH4452902 FLOW Q278 FLOW 1.0 1.0 0
MH4452980 FLOW Q279 FLOW 1.0 1.0 0
N311 FLOW Q280 FLOW 1.0 1.0 0
MH4451333 FLOW Q281 FLOW 1.0 1.0 0
MH1623974 FLOW Q282 FLOW 1.0 1.0 0
N314 FLOW Q283 FLOW 1.0 1.0 0
MH4428320 FLOW Q284 FLOW 1.0 1.0 0
MH1632398 FLOW Q285 FLOW 1.0 1.0 0
N317 FLOW Q286 FLOW 1.0 1.0 0
N318 FLOW Q287 FLOW 1.0 1.0 0
N319 FLOW Q288 FLOW 1.0 1.0 0
MH4447643 FLOW Q289 FLOW 1.0 1.0 0
N321 FLOW Q290 FLOW 1.0 1.0 0
N322 FLOW Q291 FLOW 1.0 1.0 0
MH4452081 FLOW Q292 FLOW 1.0 1.0 0
N324 FLOW Q293 FLOW 1.0 1.0 0
N325 FLOW Q294 FLOW 1.0 1.0 0
MH4429013 FLOW Q295 FLOW 1.0 1.0 0
N327 FLOW Q296 FLOW 1.0 1.0 0
N328 FLOW Q297 FLOW 1.0 1.0 0
MH4429468 FLOW Q298 FLOW 1.0 1.0 0
MH4446883 FLOW Q299 FLOW 1.0 1.0 0
N331 FLOW Q300 FLOW 1.0 1.0 0
N332 FLOW Q301 FLOW 1.0 1.0 0
MH4451092 FLOW Q302 FLOW 1.0 1.0 0
N334 FLOW Q303 FLOW 1.0 1.0 0
MH4448796 FLOW Q304 FLOW 1.0 1.0 0
N336 FLOW Q305 FLOW 1.0 1.0 0
N337 FLOW Q306 FLOW 1.0 1.0 0
MH4500902 FLOW Q307 FLOW 1.0 1.0 0
N339 FLOW Q308 FLOW 1.0 1.0 0
N340 FLOW Q309 FLOW 1.0 1.0 0
N341 FLOW Q310 FLOW 1.0 1.0 0
MH4449330 FLOW Q311 FLOW 1.0 1.0 0
N343 FLOW Q312 FLOW 1.0 1.0 0
MH4450211 FLOW Q313 FLOW 1.0 1.0 0
N345 FLOW Q314 FLOW 1.0 1.0 0
N346 FLOW Q315 FLOW 1.0 1.0 0
N347 FLOW Q316 FLOW 1.0 1.0 0
MH4453770 FLOW Q317 FLOW 1.0 1.0 0
MH4429527 FLOW Q318 FLOW 1.0 1.0 0
N353 FLOW Q319 FLOW 1.0 1.0 0
N354 FLOW Q320 FLOW 1.0 1.0 0
MH4450975 FLOW Q321 FLOW 1.0 1.0 0
N356 FLOW Q322 FLOW 1.0 1.0 0
N357 FLOW Q323 FLOW 1.0 1.0 0
MH4450207 FLOW Q324 FLOW 1.0 1.0 0
MH4453740 FLOW Q325 FLOW 1.0 1.0 0
MH4429179 FLOW Q326 FLOW 1.0 1.0 0
N361 FLOW Q327 FLOW 1.0 1.0 0
N362 FLOW Q328 FLOW 1.0 1.0 0
N363 FLOW Q329 FLOW 1.0 1.0 0
N364 FLOW Q330 FLOW 1.0 1.0 0
N365 FLOW Q331 FLOW 1.0 1.0 0
N366 FLOW Q332 FLOW 1.0 1.0 0
N367 FLOW Q333 FLOW 1.0 1.0 0
MH4452527 FLOW Q334 FLOW 1.0 1.0 0
MH4452680 FLOW Q335 FLOW 1.0 1.0 0
MH1624769 FLOW Q336 FLOW 1.0 1.0 0
MH4454629 FLOW Q337 FLOW 1.0 1.0 0
N372 FLOW Q338 FLOW 1.0 1.0 0
MH1624494 FLOW Q339 FLOW 1.0 1.0 0
N375 FLOW Q340 FLOW 1.0 1.0 0
MH4451143 FLOW Q341 FLOW 1.0 1.0 0
MH4450922 FLOW Q342 FLOW 1.0 1.0 0
MH4451207 FLOW Q343 FLOW 1.0 1.0 0
N379 FLOW Q344 FLOW 1.0 1.0 0
MH8963773 FLOW Q345 FLOW 1.0 1.0 0
MH4454643 FLOW Q346 FLOW 1.0 1.0 0
N382 FLOW Q347 FLOW 1.0 1.0 0
N383 FLOW Q348 FLOW 1.0 1.0 0
MH4426971 FLOW Q349 FLOW 1.0 1.0 0
MH4453970 FLOW Q350 FLOW 1.0 1.0 0
N387 FLOW Q351 FLOW 1.0 1.0 0
N389 FLOW Q352 FLOW 1.0 1.0 0
MH4498454 FLOW Q353 FLOW 1.0 1.0 0
N391 FLOW Q354 FLOW 1.0 1.0 0
N394 FLOW Q355 FLOW 1.0 1.0 0
MH4429503 FLOW Q356 FLOW 1.0 1.0 0
MH4429645 FLOW Q357 FLOW 1.0 1.0 0
N397 FLOW Q358 FLOW 1.0 1.0 0
MH4452011 FLOW Q359 FLOW 1.0 1.0 0
MH4451871 FLOW Q360 FLOW 1.0 1.0 0
MH4449103 FLOW Q361 FLOW 1.0 1.0 0
N401 FLOW Q362 FLOW 1.0 1.0 0
MH4499048 FLOW Q363 FLOW 1.0 1.0 0
N403 FLOW Q364 FLOW 1.0 1.0 0
MH4499729 FLOW Q365 FLOW 1.0 1.0 0
N405 FLOW Q366 FLOW 1.0 1.0 0
N406 FLOW Q367 FLOW 1.0 1.0 0
MH4456532 FLOW Q368 FLOW 1.0 1.0 0
N408 FLOW Q369 FLOW 1.0 1.0 0
MH4454376 FLOW Q370 FLOW 1.0 1.0 0
N411 FLOW Q371 FLOW 1.0 1.0 0
N412 FLOW Q372 FLOW 1.0 1.0 0
MH4499323 FLOW Q373 FLOW 1.0 1.0 0
N414 FLOW Q374 FLOW 1.0 1.0 0
MH1623928 FLOW Q375 FLOW 1.0 1.0 0
N416 FLOW Q376 FLOW 1.0 1.0 0
MH4428920 FLOW Q377 FLOW 1.0 1.0 0
N418 FLOW Q378 FLOW 1.0 1.0 0
N419 FLOW Q379 FLOW 1.0 1.0 0
N422 FLOW Q380 FLOW 1.0 1.0 0
MH4449849 FLOW Q381 FLOW 1.0 1.0 0
MH4455780 FLOW Q382 FLOW 1.0 1.0 0
N426 FLOW Q383 FLOW 1.0 1.0 0
N427 FLOW Q384 FLOW 1.0 1.0 0
MH4429019 FLOW Q385 FLOW 1.0 1.0 0
N431 FLOW Q386 FLOW 1.0 1.0 0
N432 FLOW Q387 FLOW 1.0 1.0 0
MH4447394 FLOW Q388 FLOW 1.0 1.0 0
N434 FLOW Q389 FLOW 1.0 1.0 0
MH4453315 FLOW Q390 FLOW 1.0 1.0 0
MH4453553 FLOW Q391 FLOW 1.0 1.0 0
MH4428426 FLOW Q392 FLOW 1.0 1.0 0
MH4428245 FLOW Q393 FLOW 1.0 1.0 0
N439 FLOW Q394 FLOW 1.0 1.0 0
N440 FLOW Q395 FLOW 1.0 1.0 0
MH4450378 FLOW Q396 FLOW 1.0 1.0 0
MH4450554 FLOW Q397 FLOW 1.0 1.0 0
MH1631057 FLOW Q398 FLOW 1.0 1.0 0
MH1631514 FLOW Q399 FLOW 1.0 1.0 0
N445 FLOW Q400 FLOW 1.0 1.0 0
N446 FLOW Q401 FLOW 1.0 1.0 0
N447 FLOW Q402 FLOW 1.0 1.0 0
MH4427095 FLOW Q403 FLOW 1.0 1.0 0
N450 FLOW Q404 FLOW 1.0 1.0 0
MH4455516 FLOW Q405 FLOW 1.0 1.0 0
MH1623725 FLOW Q406 FLOW 1.0 1.0 0
N453 FLOW Q407 FLOW 1.0 1.0 0
N455 FLOW Q408 FLOW 1.0 1.0 0
N456 FLOW Q409 FLOW 1.0 1.0 0
N457 FLOW Q410 FLOW 1.0 1.0 0
N458 FLOW Q411 FLOW 1.0 1.0 0
MH4456551 FLOW Q412 FLOW 1.0 1.0 0
N460 FLOW Q413 FLOW 1.0 1.0 0
N461 FLOW Q414 FLOW 1.0 1.0 0
MH4453489 FLOW Q415 FLOW 1.0 1.0 0
MH4449436 FLOW Q416 FLOW 1.0 1.0 0
N464 FLOW Q417 FLOW 1.0 1.0 0
N465 FLOW Q418 FLOW 1.0 1.0 0
N466 FLOW Q419 FLOW 1.0 1.0 0
N467 FLOW Q420 FLOW 1.0 1.0 0
N468 FLOW Q421 FLOW 1.0 1.0 0
MH4455808 FLOW Q422 FLOW 1.0 1.0 0
N470 FLOW Q423 FLOW 1.0 1.0 0
N471 FLOW Q424 FLOW 1.0 1.0 0
N472 FLOW Q425 FLOW 1.0 1.0 0
N473 FLOW Q426 FLOW 1.0 1.0 0
N474 FLOW Q427 FLOW 1.0 1.0 0
MH4450920 FLOW Q428 FLOW 1.0 1.0 0
MH4451516 FLOW Q429 FLOW 1.0 1.0 0
N477 FLOW Q430 FLOW 1.0 1.0 0
MH4452994 FLOW Q431 FLOW 1.0 1.0 0
MH4452189 FLOW Q432 FLOW 1.0 1.0 0
MH4449882 FLOW Q433 FLOW 1.0 1.0 0
MH1629073 FLOW Q434 FLOW 1.0 1.0 0
N482 FLOW Q435 FLOW 1.0 1.0 0
N483 FLOW Q436 FLOW 1.0 1.0 0
MH4429320 FLOW Q437 FLOW 1.0 1.0 0
MH4451945 FLOW Q438 FLOW 1.0 1.0 0
N486 FLOW Q439 FLOW 1.0 1.0 0
N487 FLOW Q440 FLOW 1.0 1.0 0
N488 FLOW Q441 FLOW 1.0 1.0 0
N489 FLOW Q442 FLOW 1.0 1.0 0
N490 FLOW Q443 FLOW 1.0 1.0 0
N491 FLOW Q444 FLOW 1.0 1.0 0
N492 FLOW Q445 FLOW 1.0 1.0 0
MH4452809 FLOW Q446 FLOW 1.0 1.0 0
MH4452632 FLOW Q447 FLOW 1.0 1.0 0
N498 FLOW Q448 FLOW 1.0 1.0 0
N499 FLOW Q449 FLOW 1.0 1.0 0
MH4453981 FLOW Q450 FLOW 1.0 1.0 0
N501 FLOW Q451 FLOW 1.0 1.0 0
N505 FLOW Q452 FLOW 1.0 1.0 0
MH4320104 FLOW Q453 FLOW 1.0 1.0 0
N507 FLOW Q454 FLOW 1.0 1.0 0
N510 FLOW Q455 FLOW 1.0 1.0 0
N511 FLOW Q456 FLOW 1.0 1.0 0
MH4426673 FLOW Q457 FLOW 1.0 1.0 0
N515 FLOW Q458 FLOW 1.0 1.0 0
MH4450077 FLOW Q459 FLOW 1.0 1.0 0
N517 FLOW Q460 FLOW 1.0 1.0 0
MH4428836 FLOW Q461 FLOW 1.0 1.0 0
MH4429107 FLOW Q462 FLOW 1.0 1.0 0
N522 FLOW Q463 FLOW 1.0 1.0 0
MH4429656 FLOW Q464 FLOW 1.0 1.0 0
MH4450617 FLOW Q465 FLOW 1.0 1.0 0
MH4448392 FLOW Q466 FLOW 1.0 1.0 0
MH4448813 FLOW Q467 FLOW 1.0 1.0 0
MH4449913 FLOW Q468 FLOW 1.0 1.0 0
N530 FLOW Q469 FLOW 1.0 1.0 0
MH4427309 FLOW Q470 FLOW 1.0 1.0 0
N532 FLOW Q471 FLOW 1.0 1.0 0
N533 FLOW Q472 FLOW 1.0 1.0 0
N534 FLOW Q473 FLOW 1.0 1.0 0
MH1625316 FLOW Q474 FLOW 1.0 1.0 0
N536 FLOW Q475 FLOW 1.0 1.0 0
MH4429584 FLOW Q476 FLOW 1.0 1.0 0
MH4429544 FLOW Q477 FLOW 1.0 1.0 0
MH4452946 FLOW Q478 FLOW 1.0 1.0 0
N542 FLOW Q479 FLOW 1.0 1.0 0
MH4428797 FLOW Q480 FLOW 1.0 1.0 0
N544 FLOW Q481 FLOW 1.0 1.0 0
MH4451468 FLOW Q482 FLOW 1.0 1.0 0
MH4450391 FLOW Q483 FLOW 1.0 1.0 0
MH4450531 FLOW Q484 FLOW 1.0 1.0 0
MH1629194 FLOW Q485 FLOW 1.0 1.0 0
N549 FLOW Q486 FLOW 1.0 1.0 0
N550 FLOW Q487 FLOW 1.0 1.0 0
MH4449977 FLOW Q488 FLOW 1.0 1.0 0
N552 FLOW Q489 FLOW 1.0 1.0 0
N553 FLOW Q490 FLOW 1.0 1.0 0
N554 FLOW Q491 FLOW 1.0 1.0 0
N557 FLOW Q492 FLOW 1.0 1.0 0
MH4454125 FLOW Q493 FLOW 1.0 1.0 0
N559 FLOW Q494 FLOW 1.0 1.0 0
N560 FLOW Q495 FLOW 1.0 1.0 0
N561 FLOW Q496 FLOW 1.0 1.0 0
N562 FLOW Q497 FLOW 1.0 1.0 0
N563 FLOW Q498 FLOW 1.0 1.0 0
N564 FLOW Q499 FLOW 1.0 1.0 0
MH4453047 FLOW Q500 FLOW 1.0 1.0 0
N566 FLOW Q501 FLOW 1.0 1.0 0
N567 FLOW Q502 FLOW 1.0 1.0 0
MH4455813 FLOW Q503 FLOW 1.0 1.0 0
N569 FLOW Q504 FLOW 1.0 1.0 0
MH4451576 FLOW Q505 FLOW 1.0 1.0 0
N573 FLOW Q506 FLOW 1.0 1.0 0
N574 FLOW Q507 FLOW 1.0 1.0 0
N576 FLOW Q508 FLOW 1.0 1.0 0
N577 FLOW Q509 FLOW 1.0 1.0 0
N578 FLOW Q510 FLOW 1.0 1.0 0
N581 FLOW Q511 FLOW 1.0 1.0 0
N582 FLOW Q512 FLOW 1.0 1.0 0
MH4450193 FLOW Q513 FLOW 1.0 1.0 0
MH4449635 FLOW Q514 FLOW 1.0 1.0 0
N585 FLOW Q515 FLOW 1.0 1.0 0
MH4454657 FLOW Q516 FLOW 1.0 1.0 0
N587 FLOW Q517 FLOW 1.0 1.0 0
MH4428800 FLOW Q518 FLOW 1.0 1.0 0
N589 FLOW Q519 FLOW 1.0 1.0 0
N592 FLOW Q520 FLOW 1.0 1.0 0
N593 FLOW Q521 FLOW 1.0 1.0 0
MH4452071 FLOW Q522 FLOW 1.0 1.0 0
N595 FLOW Q523 FLOW 1.0 1.0 0
N596 FLOW Q524 FLOW 1.0 1.0 0
N597 FLOW Q525 FLOW 1.0 1.0 0
N599 FLOW Q526 FLOW 1.0 1.0 0
N600 FLOW Q527 FLOW 1.0 1.0 0
MH4454876 FLOW Q528 FLOW 1.0 1.0 0
MH4455429 FLOW Q529 FLOW 1.0 1.0 0
MH4448762 FLOW Q530 FLOW 1.0 1.0 0
N605 FLOW Q531 FLOW 1.0 1.0 0
N607 FLOW Q532 FLOW 1.0 1.0 0
MH4454901 FLOW Q533 FLOW 1.0 1.0 0
N609 FLOW Q534 FLOW 1.0 1.0 0
N610 FLOW Q535 FLOW 1.0 1.0 0
N611 FLOW Q536 FLOW 1.0 1.0 0
N612 FLOW Q537 FLOW 1.0 1.0 0
MH1624202 FLOW Q538 FLOW 1.0 1.0 0
N614 FLOW Q539 FLOW 1.0 1.0 0
N615 FLOW Q540 FLOW 1.0 1.0 0
N616 FLOW Q541 FLOW 1.0 1.0 0
MH4454195 FLOW Q542 FLOW 1.0 1.0 0
N618 FLOW Q543 FLOW 1.0 1.0 0
N619 FLOW Q544 FLOW 1.0 1.0 0
N620 FLOW Q545 FLOW 1.0 1.0 0
N621 FLOW Q546 FLOW 1.0 1.0 0
MH1626450 FLOW Q547 FLOW 1.0 1.0 0
N623 FLOW Q548 FLOW 1.0 1.0 0
MH1626578 FLOW Q549 FLOW 1.0 1.0 0
N625 FLOW Q550 FLOW 1.0 1.0 0
N626 FLOW Q551 FLOW 1.0 1.0 0
MH4429411 FLOW Q552 FLOW 1.0 1.0 0
MH4501851 FLOW Q553 FLOW 1.0 1.0 0
N630 FLOW Q554 FLOW 1.0 1.0 0
N631 FLOW Q555 FLOW 1.0 1.0 0
N632 FLOW Q556 FLOW 1.0 1.0 0
N633 FLOW Q557 FLOW 1.0 1.0 0
N634 FLOW Q558 FLOW 1.0 1.0 0
MH4456372 FLOW Q559 FLOW 1.0 1.0 0
MH5216010 FLOW Q560 FLOW 1.0 1.0 0
N640 FLOW Q561 FLOW 1.0 1.0 0
MH4498407 FLOW Q562 FLOW 1.0 1.0 0
N642 FLOW Q563 FLOW 1.0 1.0 0
MH4453748 FLOW Q564 FLOW 1.0 1.0 0
N644 FLOW Q565 FLOW 1.0 1.0 0
N645 FLOW Q566 FLOW 1.0 1.0 0
N646 FLOW Q567 FLOW 1.0 1.0 0
N647 FLOW Q568 FLOW 1.0 1.0 0
MH4427312 FLOW Q569 FLOW 1.0 1.0 0
N649 FLOW Q570 FLOW 1.0 1.0 0
N650 FLOW Q571 FLOW 1.0 1.0 0
MH4451113 FLOW Q572 FLOW 1.0 1.0 0
N652 FLOW Q573 FLOW 1.0 1.0 0
MH4450100 FLOW Q574 FLOW 1.0 1.0 0
MH4450180 FLOW Q575 FLOW 1.0 1.0 0
N655 FLOW Q576 FLOW 1.0 1.0 0
N656 FLOW Q577 FLOW 1.0 1.0 0
MH4429323 FLOW Q578 FLOW 1.0 1.0 0
N658 FLOW Q579 FLOW 1.0 1.0 0
N659 FLOW Q580 FLOW 1.0 1.0 0
N660 FLOW Q581 FLOW 1.0 1.0 0
MH4449920 FLOW Q582 FLOW 1.0 1.0 0
N662 FLOW Q583 FLOW 1.0 1.0 0
MH1790382 FLOW Q584 FLOW 1.0 1.0 0
N664 FLOW Q585 FLOW 1.0 1.0 0
N665 FLOW Q586 FLOW 1.0 1.0 0
N666 FLOW Q587 FLOW 1.0 1.0 0
MH4455602 FLOW Q588 FLOW 1.0 1.0 0
N668 FLOW Q589 FLOW 1.0 1.0 0
MH4429471 FLOW Q590 FLOW 1.0 1.0 0
N670 FLOW Q591 FLOW 1.0 1.0 0
MH4451886 FLOW Q592 FLOW 1.0 1.0 0
N672 FLOW Q593 FLOW 1.0 1.0 0
N673 FLOW Q594 FLOW 1.0 1.0 0
N674 FLOW Q595 FLOW 1.0 1.0 0
N675 FLOW Q596 FLOW 1.0 1.0 0
N676 FLOW Q597 FLOW 1.0 1.0 0
N677 FLOW Q598 FLOW 1.0 1.0 0
MH4450802 FLOW Q599 FLOW 1.0 1.0 0
MH4447506 FLOW Q600 FLOW 1.0 1.0 0
MH4429499 FLOW Q601 FLOW 1.0 1.0 0
MH4447691 FLOW Q602 FLOW 1.0 1.0 0
N683 FLOW Q603 FLOW 1.0 1.0 0
MH4449485 FLOW Q604 FLOW 1.0 1.0 0
N685 FLOW Q605 FLOW 1.0 1.0 0
N686 FLOW Q606 FLOW 1.0 1.0 0
N687 FLOW Q607 FLOW 1.0 1.0 0
N688 FLOW Q608 FLOW 1.0 1.0 0
MH5233531 FLOW Q609 FLOW 1.0 1.0 0
N690 FLOW Q610 FLOW 1.0 1.0 0
N691 FLOW Q611 FLOW 1.0 1.0 0
N692 FLOW Q612 FLOW 1.0 1.0 0
N693 FLOW Q613 FLOW 1.0 1.0 0
N694 FLOW Q614 FLOW 1.0 1.0 0
N695 FLOW Q615 FLOW 1.0 1.0 0
MH4428146 FLOW Q616 FLOW 1.0 1.0 0
N698 FLOW Q617 FLOW 1.0 1.0 0
N699 FLOW Q618 FLOW 1.0 1.0 0
N700 FLOW Q619 FLOW 1.0 1.0 0
MH4428096 FLOW Q620 FLOW 1.0 1.0 0
N702 FLOW Q621 FLOW 1.0 1.0 0
MH4450167 FLOW Q622 FLOW 1.0 1.0 0
N704 FLOW Q623 FLOW 1.0 1.0 0
N705 FLOW Q624 FLOW 1.0 1.0 0
N706 FLOW Q625 FLOW 1.0 1.0 0
MH1630330 FLOW Q626 FLOW 1.0 1.0 0
MH1630926 FLOW Q627 FLOW 1.0 1.0 0
MH4500043 FLOW Q628 FLOW 1.0 1.0 0
MH4454993 FLOW Q629 FLOW 1.0 1.0 0
N711 FLOW Q630 FLOW 1.0 1.0 0
N713 FLOW Q631 FLOW 1.0 1.0 0
N714 FLOW Q632 FLOW 1.0 1.0 0
N715 FLOW Q633 FLOW 1.0 1.0 0
N716 FLOW Q634 FLOW 1.0 1.0 0
N717 FLOW Q635 FLOW 1.0 1.0 0
MH1629888 FLOW Q636 FLOW 1.0 1.0 0
N719 FLOW Q637 FLOW 1.0 1.0 0
N720 FLOW Q638 FLOW 1.0 1.0 0
MH4427714 FLOW Q639 FLOW 1.0 1.0 0
N722 FLOW Q640 FLOW 1.0 1.0 0
N723 FLOW Q641 FLOW 1.0 1.0 0
MH4450332 FLOW Q642 FLOW 1.0 1.0 0
N725 FLOW Q643 FLOW 1.0 1.0 0
N726 FLOW Q644 FLOW 1.0 1.0 0
N727 FLOW Q645 FLOW 1.0 1.0 0
N728 FLOW Q646 FLOW 1.0 1.0 0
N729 FLOW Q647 FLOW 1.0 1.0 0
MH4452952 FLOW Q648 FLOW 1.0 1.0 0
N734 FLOW Q649 FLOW 1.0 1.0 0
N735 FLOW Q650 FLOW 1.0 1.0 0
N736 FLOW Q651 FLOW 1.0 1.0 0
N737 FLOW Q652 FLOW 1.0 1.0 0
N738 FLOW Q653 FLOW 1.0 1.0 0
N741 FLOW Q654 FLOW 1.0 1.0 0
MH4426188 FLOW Q655 FLOW 1.0 1.0 0
MH4426979 FLOW Q656 FLOW 1.0 1.0 0
N745 FLOW Q657 FLOW 1.0 1.0 0
MH4455191 FLOW Q658 FLOW 1.0 1.0 0
MH4454312 FLOW Q659 FLOW 1.0 1.0 0
N748 FLOW Q660 FLOW 1.0 1.0 0
N749 FLOW Q661 FLOW 1.0 1.0 0
N750 FLOW Q662 FLOW 1.0 1.0 0
N751 FLOW Q663 FLOW 1.0 1.0 0
MH4427849 FLOW Q664 FLOW 1.0 1.0 0
N753 FLOW Q665 FLOW 1.0 1.0 0
N754 FLOW Q666 FLOW 1.0 1.0 0
N755 FLOW Q667 FLOW 1.0 1.0 0
N756 FLOW Q668 FLOW 1.0 1.0 0
MH1625959 FLOW Q669 FLOW 1.0 1.0 0
N758 FLOW Q670 FLOW 1.0 1.0 0
N762 FLOW Q671 FLOW 1.0 1.0 0
N763 FLOW Q672 FLOW 1.0 1.0 0
N764 FLOW Q673 FLOW 1.0 1.0 0
MH4498291 FLOW Q674 FLOW 1.0 1.0 0
N766 FLOW Q675 FLOW 1.0 1.0 0
MH5164627 FLOW Q676 FLOW 1.0 1.0 0
N768 FLOW Q677 FLOW 1.0 1.0 0
MH4453850 FLOW Q678 FLOW 1.0 1.0 0
MH4454009 FLOW Q679 FLOW 1.0 1.0 0
N771 FLOW Q680 FLOW 1.0 1.0 0
N772 FLOW Q681 FLOW 1.0 1.0 0
MH4453031 FLOW Q682 FLOW 1.0 1.0 0
MH1626189 FLOW Q683 FLOW 1.0 1.0 0
N777 FLOW Q684 FLOW 1.0 1.0 0
N778 FLOW Q685 FLOW 1.0 1.0 0
N779 FLOW Q686 FLOW 1.0 1.0 0
N780 FLOW Q687 FLOW 1.0 1.0 0
N781 FLOW Q688 FLOW 1.0 1.0 0
MH4499059 FLOW Q689 FLOW 1.0 1.0 0
N783 FLOW Q690 FLOW 1.0 1.0 0
MH4451673 FLOW Q691 FLOW 1.0 1.0 0
N787 FLOW Q692 FLOW 1.0 1.0 0
N788 FLOW Q693 FLOW 1.0 1.0 0
N789 FLOW Q694 FLOW 1.0 1.0 0
MH4447346 FLOW Q695 FLOW 1.0 1.0 0
N791 FLOW Q696 FLOW 1.0 1.0 0
N792 FLOW Q697 FLOW 1.0 1.0 0
MH4427659 FLOW Q698 FLOW 1.0 1.0 0
N794 FLOW Q699 FLOW 1.0 1.0 0
N795 FLOW Q700 FLOW 1.0 1.0 0
N796 FLOW Q701 FLOW 1.0 1.0 0
MH4453098 FLOW Q702 FLOW 1.0 1.0 0
N798 FLOW Q703 FLOW 1.0 1.0 0
N799 FLOW Q704 FLOW 1.0 1.0 0
MH4502186 FLOW Q705 FLOW 1.0 1.0 0
N801 FLOW Q706 FLOW 1.0 1.0 0
N804 FLOW Q707 FLOW 1.0 1.0 0
MH4500625 FLOW Q708 FLOW 1.0 1.0 0
N806 FLOW Q709 FLOW 1.0 1.0 0
N807 FLOW Q710 FLOW 1.0 1.0 0
N808 FLOW Q711 FLOW 1.0 1.0 0
N809 FLOW Q712 FLOW 1.0 1.0 0
MH4429420 FLOW Q713 FLOW 1.0 1.0 0
N811 FLOW Q714 FLOW 1.0 1.0 0
N814 FLOW Q715 FLOW 1.0 1.0 0
N815 FLOW Q716 FLOW 1.0 1.0 0
N816 FLOW Q717 FLOW 1.0 1.0 0
N817 FLOW Q718 FLOW 1.0 1.0 0
MH4450396 FLOW Q719 FLOW 1.0 1.0 0
N819 FLOW Q720 FLOW 1.0 1.0 0
MH4499406 FLOW Q721 FLOW 1.0 1.0 0
MH4456777 FLOW Q722 FLOW 1.0 1.0 0
N822 FLOW Q723 FLOW 1.0 1.0 0
N823 FLOW Q724 FLOW 1.0 1.0 0
MH4428638 FLOW Q725 FLOW 1.0 1.0 0
MH8707824 FLOW Q726 FLOW 1.0 1.0 0
N827 FLOW Q727 FLOW 1.0 1.0 0
N828 FLOW Q728 FLOW 1.0 1.0 0
N829 FLOW Q729 FLOW 1.0 1.0 0
N830 FLOW Q730 FLOW 1.0 1.0 0
MH4454398 FLOW Q731 FLOW 1.0 1.0 0
N832 FLOW Q732 FLOW 1.0 1.0 0
N833 FLOW Q733 FLOW 1.0 1.0 0
N834 FLOW Q734 FLOW 1.0 1.0 0
MH4453185 FLOW Q735 FLOW 1.0 1.0 0
N836 FLOW Q736 FLOW 1.0 1.0 0
N837 FLOW Q737 FLOW 1.0 1.0 0
N838 FLOW Q738 FLOW 1.0 1.0 0
N839 FLOW Q739 FLOW 1.0 1.0 0
N840 FLOW Q740 FLOW 1.0 1.0 0
MH4450847 FLOW Q741 FLOW 1.0 1.0 0
N842 FLOW Q742 FLOW 1.0 1.0 0
MH4428583 FLOW Q743 FLOW 1.0 1.0 0
N845 FLOW Q744 FLOW 1.0 1.0 0
MH4455943 FLOW Q745 FLOW 1.0 1.0 0
N847 FLOW Q746 FLOW 1.0 1.0 0
MH4426728 FLOW Q747 FLOW 1.0 1.0 0
N849 FLOW Q748 FLOW 1.0 1.0 0
MH4427741 FLOW Q749 FLOW 1.0 1.0 0
N851 FLOW Q750 FLOW 1.0 1.0 0
N853 FLOW Q751 FLOW 1.0 1.0 0
N854 FLOW Q752 FLOW 1.0 1.0 0
N855 FLOW Q753 FLOW 1.0 1.0 0
MH4452541 FLOW Q754 FLOW 1.0 1.0 0
N857 FLOW Q755 FLOW 1.0 1.0 0
N858 FLOW Q756 FLOW 1.0 1.0 0
MH4449796 FLOW Q757 FLOW 1.0 1.0 0
N862 FLOW Q758 FLOW 1.0 1.0 0
N863 FLOW Q759 FLOW 1.0 1.0 0
N865 FLOW Q760 FLOW 1.0 1.0 0
MH4450269 FLOW Q761 FLOW 1.0 1.0 0
MH4447355 FLOW Q762 FLOW 1.0 1.0 0
MH4448029 FLOW Q763 FLOW 1.0 1.0 0
N869 FLOW Q764 FLOW 1.0 1.0 0
N870 FLOW Q765 FLOW 1.0 1.0 0
N871 FLOW Q766 FLOW 1.0 1.0 0
N873 FLOW Q767 FLOW 1.0 1.0 0
N874 FLOW Q768 FLOW 1.0 1.0 0
N875 FLOW Q769 FLOW 1.0 1.0 0
MH4452462 FLOW Q770 FLOW 1.0 1.0 0
N877 FLOW Q771 FLOW 1.0 1.0 0
N878 FLOW Q772 FLOW 1.0 1.0 0
MH4448626 FLOW Q773 FLOW 1.0 1.0 0
MH4428137 FLOW Q774 FLOW 1.0 1.0 0
MH1630702 FLOW Q775 FLOW 1.0 1.0 0
N886 FLOW Q776 FLOW 1.0 1.0 0
N887 FLOW Q777 FLOW 1.0 1.0 0
N888 FLOW Q778 FLOW 1.0 1.0 0
N890 FLOW Q779 FLOW 1.0 1.0 0
MH4454116 FLOW Q780 FLOW 1.0 1.0 0
N892 FLOW Q781 FLOW 1.0 1.0 0
N893 FLOW Q782 FLOW 1.0 1.0 0
N894 FLOW Q783 FLOW 1.0 1.0 0
N895 FLOW Q784 FLOW 1.0 1.0 0
MH4452110 FLOW Q785 FLOW 1.0 1.0 0
MH4428968 FLOW Q786 FLOW 1.0 1.0 0
MH4500689 FLOW Q787 FLOW 1.0 1.0 0
N899 FLOW Q788 FLOW 1.0 1.0 0
MH1623436 FLOW Q789 FLOW 1.0 1.0 0
MH4454395 FLOW Q790 FLOW 1.0 1.0 0
N903 FLOW Q791 FLOW 1.0 1.0 0
MH4449866 FLOW Q792 FLOW 1.0 1.0 0
MH4449011 FLOW Q793 FLOW 1.0 1.0 0
N906 FLOW Q794 FLOW 1.0 1.0 0
MH4452760 FLOW Q795 FLOW 1.0 1.0 0
N908 FLOW Q796 FLOW 1.0 1.0 0
N909 FLOW Q797 FLOW 1.0 1.0 0
MH4447668 FLOW Q798 FLOW 1.0 1.0 0
MH4448929 FLOW Q799 FLOW 1.0 1.0 0
N912 FLOW Q800 FLOW 1.0 1.0 0
N913 FLOW Q801 FLOW 1.0 1.0 0
N914 FLOW Q802 FLOW 1.0 1.0 0
N915 FLOW Q803 FLOW 1.0 1.0 0
N916 FLOW Q804 FLOW 1.0 1.0 0
MH4448474 FLOW Q805 FLOW 1.0 1.0 0
MH4429086 FLOW Q806 FLOW 1.0 1.0 0
N919 FLOW Q807 FLOW 1.0 1.0 0
MH4320244 FLOW Q808 FLOW 1.0 1.0 0
N921 FLOW Q809 FLOW 1.0 1.0 0
N922 FLOW Q810 FLOW 1.0 1.0 0
N923 FLOW Q811 FLOW 1.0 1.0 0
N924 FLOW Q812 FLOW 1.0 1.0 0
N925 FLOW Q813 FLOW 1.0 1.0 0
N926 FLOW Q814 FLOW 1.0 1.0 0
N929 FLOW Q815 FLOW 1.0 1.0 0
N930 FLOW Q816 FLOW 1.0 1.0 0
N931 FLOW Q817 FLOW 1.0 1.0 0
MH4429268 FLOW Q818 FLOW 1.0 1.0 0
N938 FLOW Q819 FLOW 1.0 1.0 0
N939 FLOW Q820 FLOW 1.0 1.0 0
N940 FLOW Q821 FLOW 1.0 1.0 0
N941 FLOW Q822 FLOW 1.0 1.0 0
N942 FLOW Q823 FLOW 1.0 1.0 0
MH4451870 FLOW Q824 FLOW 1.0 1.0 0
N944 FLOW Q825 FLOW 1.0 1.0 0
MH4453213 FLOW Q826 FLOW 1.0 1.0 0
MH4428067 FLOW Q827 FLOW 1.0 1.0 0
MH4453837 FLOW Q828 FLOW 1.0 1.0 0
MH4451967 FLOW Q829 FLOW 1.0 1.0 0
MH4449503 FLOW Q830 FLOW 1.0 1.0 0
N950 FLOW Q831 FLOW 1.0 1.0 0
N951 FLOW Q832 FLOW 1.0 1.0 0
N952 FLOW Q833 FLOW 1.0 1.0 0
MH4428188 FLOW Q834 FLOW 1.0 1.0 0
N954 FLOW Q835 FLOW 1.0 1.0 0
MH4449778 FLOW Q836 FLOW 1.0 1.0 0
N956 FLOW Q837 FLOW 1.0 1.0 0
N957 FLOW Q838 FLOW 1.0 1.0 0
N959 FLOW Q839 FLOW 1.0 1.0 0
N960 FLOW Q840 FLOW 1.0 1.0 0
N961 FLOW Q841 FLOW 1.0 1.0 0
N962 FLOW Q842 FLOW 1.0 1.0 0
N963 FLOW Q843 FLOW 1.0 1.0 0
N964 FLOW Q844 FLOW 1.0 1.0 0
MH4447452 FLOW Q845 FLOW 1.0 1.0 0
N966 FLOW Q846 FLOW 1.0 1.0 0
N967 FLOW Q847 FLOW 1.0 1.0 0
N968 FLOW Q848 FLOW 1.0 1.0 0
MH4427588 FLOW Q849 FLOW 1.0 1.0 0
N970 FLOW Q850 FLOW 1.0 1.0 0
N971 FLOW Q851 FLOW 1.0 1.0 0
N972 FLOW Q852 FLOW 1.0 1.0 0
N974 FLOW Q853 FLOW 1.0 1.0 0
N975 FLOW Q854 FLOW 1.0 1.0 0
N976 FLOW Q855 FLOW 1.0 1.0 0
N977 FLOW Q856 FLOW 1.0 1.0 0
N978 FLOW Q857 FLOW 1.0 1.0 0
N979 FLOW Q858 FLOW 1.0 1.0 0
N980 FLOW Q859 FLOW 1.0 1.0 0
MH4450776 FLOW Q860 FLOW 1.0 1.0 0
MH4453095 FLOW Q861 FLOW 1.0 1.0 0
N984 FLOW Q862 FLOW 1.0 1.0 0
N985 FLOW Q863 FLOW 1.0 1.0 0
N986 FLOW Q864 FLOW 1.0 1.0 0
N987 FLOW Q865 FLOW 1.0 1.0 0
N990 FLOW Q866 FLOW 1.0 1.0 0
N991 FLOW Q867 FLOW 1.0 1.0 0
N992 FLOW Q868 FLOW 1.0 1.0 0
N994 FLOW Q869 FLOW 1.0 1.0 0
N995 FLOW Q870 FLOW 1.0 1.0 0
N996 FLOW Q871 FLOW 1.0 1.0 0
N998 FLOW Q873 FLOW 1.0 1.0 0
N999 FLOW Q874 FLOW 1.0 1.0 0
N1000 FLOW Q875 FLOW 1.0 1.0 0
N1001 FLOW Q876 FLOW 1.0 1.0 0
N1002 FLOW Q877 FLOW 1.0 1.0 0
N1003 FLOW Q878 FLOW 1.0 1.0 0
N1005 FLOW Q879 FLOW 1.0 1.0 0
N1006 FLOW Q880 FLOW 1.0 1.0 0
N1007 FLOW Q881 FLOW 1.0 1.0 0
N1009 FLOW Q882 FLOW 1.0 1.0 0
