[OPTIONS]
FLOW_UNITS            LPS
INFILTRATION          HORTON
FLOW_ROUTING          DYNWAVE
LINK_OFFSETS          ELEVATION
START_DATE            01/01/2026
START_TIME            00:00:00
REPORT_START_DATE     01/01/2026
REPORT_START_TIME     00:00:00
END_DATE              01/01/2026
END_TIME              02:00:00
REPORT_STEP           00:00:10
ROUTING_STEP          0.5
ALLOW_PONDING         NO
INERTIAL_DAMPING      PARTIAL
NORMAL_FLOW_LIMITED   BOTH
SURCHARGE_METHOD      SLOT
MIN_SURFAREA          0.02
LENGTHENING_STEP      0

[JUNCTIONS]
;;Name Invert MaxDepth InitDepth SurDepth Aponded
A-J.1 37.523 0.225 0 100 0
A-J.2 37.479 0.225 0 100 0
B-J.1 38.796 0.150 0 100 0
B-J.2 38.581 0.150 0 100 0
B-J.3 38.367 0.150 0 100 0
B-J.4 38.153 0.150 0 100 0
B-J.5 37.939 0.150 0 100 0
B-J.6 37.724 0.150 0 100 0
J-D.1 37.386 0.225 0 100 0
J-D.2 37.338 0.225 0 100 0
J-D.3 37.290 0.225 0 100 0

[STORAGE]
;;Name Elev MaxDepth InitDepth Shape Coeff Expon Const SurDepth Fevap
A 37.568 4.379 0 FUNCTIONAL 0 0 0.8659 0 0
B 39.010 2.654 0 FUNCTIONAL 0 0 0.8659 0 0
J 37.434 4.491 0 FUNCTIONAL 0 0 0.8659 0 0
D 37.205 4.699 0 FUNCTIONAL 0 0 0.8659 0 0

[OUTFALLS]
;;Name Invert Type Gated
OUT 37.101 FREE NO

[CONDUITS]
;;Name From To Length N InOffset OutOffset InitFlow
A-J~0 A A-J.1 13.487 0.013 37.5680 37.5233 0
A-J~1 A-J.1 A-J.2 13.487 0.013 37.5233 37.4787 0
A-J~2 A-J.2 J 13.487 0.013 37.4787 37.4340 0
B-J~0 B B-J.1 13.002 0.013 39.0100 38.7957 0
B-J~1 B-J.1 B-J.2 13.002 0.013 38.7957 38.5814 0
B-J~2 B-J.2 B-J.3 13.002 0.013 38.5814 38.3671 0
B-J~3 B-J.3 B-J.4 13.002 0.013 38.3671 38.1529 0
B-J~4 B-J.4 B-J.5 13.002 0.013 38.1529 37.9386 0
B-J~5 B-J.5 B-J.6 13.002 0.013 37.9386 37.7243 0
B-J~6 B-J.6 J 13.002 0.013 37.7243 37.5100 0
J-D~0 J J-D.1 14.414 0.013 37.4340 37.3860 0
J-D~1 J-D.1 J-D.2 14.414 0.013 37.3860 37.3380 0
J-D~2 J-D.2 J-D.3 14.414 0.013 37.3380 37.2900 0
J-D~3 J-D.3 D 14.414 0.013 37.2900 37.2420 0
D-out D OUT 30.944 0.013 37.2050 37.1010 0

[XSECTIONS]
;;Link Shape Geom1 Geom2 Geom3 Geom4 Barrels
A-J~0 CIRCULAR 0.225 0 0 0 1
A-J~1 CIRCULAR 0.225 0 0 0 1
A-J~2 CIRCULAR 0.225 0 0 0 1
B-J~0 CIRCULAR 0.150 0 0 0 1
B-J~1 CIRCULAR 0.150 0 0 0 1
B-J~2 CIRCULAR 0.150 0 0 0 1
B-J~3 CIRCULAR 0.150 0 0 0 1
B-J~4 CIRCULAR 0.150 0 0 0 1
B-J~5 CIRCULAR 0.150 0 0 0 1
B-J~6 CIRCULAR 0.150 0 0 0 1
J-D~0 CIRCULAR 0.225 0 0 0 1
J-D~1 CIRCULAR 0.225 0 0 0 1
J-D~2 CIRCULAR 0.225 0 0 0 1
J-D~3 CIRCULAR 0.225 0 0 0 1
D-out CIRCULAR 0.225 0 0 0 1

[TIMESERIES]
;;Name Time(h) Value
Q0 0.00000 29.602179
Q0 2.00000 29.602179
Q1 0.00000 0.049381
Q1 2.00000 0.049381
Q2 0.00000 0.054744
Q2 2.00000 0.054744
Q4 0.00000 0.051223
Q4 2.00000 0.051223
Q5 0.00000 0.051223
Q5 2.00000 0.051223
Q6 0.00000 0.049381
Q6 2.00000 0.049381
Q7 0.00000 0.049381
Q7 2.00000 0.049381
Q8 0.00000 0.049381
Q8 2.00000 0.049381
Q9 0.00000 0.049381
Q9 2.00000 0.049381
Q10 0.00000 0.049381
Q10 2.00000 0.049381
Q11 0.00000 0.049381
Q11 2.00000 0.049381
Q12 0.00000 0.054744
Q12 2.00000 0.054744
Q13 0.00000 0.054744
Q13 2.00000 0.054744
Q14 0.00000 0.054744
Q14 2.00000 0.054744

[INFLOWS]
;;Node Constituent TimeSeries Type Mfactor Sfactor Baseline
A FLOW Q0 FLOW 1.0 1.0 0
B FLOW Q1 FLOW 1.0 1.0 0
J FLOW Q2 FLOW 1.0 1.0 0
A-J.1 FLOW Q4 FLOW 1.0 1.0 0
A-J.2 FLOW Q5 FLOW 1.0 1.0 0
B-J.1 FLOW Q6 FLOW 1.0 1.0 0
B-J.2 FLOW Q7 FLOW 1.0 1.0 0
B-J.3 FLOW Q8 FLOW 1.0 1.0 0
B-J.4 FLOW Q9 FLOW 1.0 1.0 0
B-J.5 FLOW Q10 FLOW 1.0 1.0 0
B-J.6 FLOW Q11 FLOW 1.0 1.0 0
J-D.1 FLOW Q12 FLOW 1.0 1.0 0
J-D.2 FLOW Q13 FLOW 1.0 1.0 0
J-D.3 FLOW Q14 FLOW 1.0 1.0 0
