[OPTIONS]
FLOW_UNITS            LPS
INFILTRATION          HORTON
FLOW_ROUTING          DYNWAVE
LINK_OFFSETS          ELEVATION
START_DATE            01/01/2026
START_TIME            00:00:00
REPORT_START_DATE     01/01/2026
REPORT_START_TIME     00:00:00
END_DATE              01/01/2026
END_TIME              02:00:00
REPORT_STEP           00:00:10
ROUTING_STEP          0.5
ALLOW_PONDING         NO
INERTIAL_DAMPING      PARTIAL
NORMAL_FLOW_LIMITED   BOTH
SURCHARGE_METHOD      SLOT
MIN_SURFAREA          0.02
LENGTHENING_STEP      0

[JUNCTIONS]
;;Name Invert MaxDepth InitDepth SurDepth Aponded
N10 49.783 3.630 0 100 0
N13 42.056 4.129 0 100 0
N22 43.350 2.009 0 100 0
N25 39.641 4.792 0 100 0
N43 39.997 4.601 0 100 0
N85 51.797 4.362 0 100 0
N97 38.170 3.906 0 100 0
N113 50.498 3.730 0 100 0
N124 41.769 3.013 0 100 0
N166 46.109 3.559 0 100 0
N168 44.367 3.169 0 100 0
N188 41.420 2.678 0 100 0
N197 37.690 4.250 0 100 0
N198 40.316 2.249 0 100 0
N212 56.454 2.408 0 100 0
N258 40.794 2.975 0 100 0
N265 38.960 2.172 0 100 0
N272 40.750 1.728 0 100 0
N274 56.736 3.312 0 100 0
N275 55.974 3.920 0 100 0
N303 42.630 2.894 0 100 0
N325 39.480 2.057 0 100 0
N327 40.661 3.501 0 100 0
N328 38.445 4.222 0 100 0
N379 39.735 2.095 0 100 0
N397 41.960 2.718 0 100 0
N460 39.540 1.904 0 100 0
N467 57.623 2.081 0 100 0
N468 55.800 3.662 0 100 0
N483 41.214 1.861 0 100 0
N491 53.967 2.939 0 100 0
N492 52.810 3.137 0 100 0
N515 58.300 2.793 0 100 0
N542 45.285 2.670 0 100 0
N552 40.394 3.024 0 100 0
N562 42.870 2.345 0 100 0
N563 41.430 2.329 0 100 0
N566 45.760 3.386 0 100 0
N578 39.268 4.830 0 100 0
N582 38.650 3.321 0 100 0
N599 38.766 4.183 0 100 0
N644 40.718 4.234 0 100 0
N647 55.790 3.229 0 100 0
N655 43.317 0.605 0 100 0
N656 42.337 1.633 0 100 0
N659 44.080 2.532 0 100 0
N660 42.420 1.997 0 100 0
N675 39.475 4.034 0 100 0
N676 40.010 2.015 0 100 0
N687 43.660 1.943 0 100 0
N688 43.000 2.103 0 100 0
N693 39.870 3.623 0 100 0
N695 47.870 2.297 0 100 0
N702 40.280 1.126 0 100 0
N711 38.536 3.471 0 100 0
N722 46.660 2.678 0 100 0
N751 52.363 2.900 0 100 0
N779 44.712 3.349 0 100 0
N781 40.740 2.067 0 100 0
N799 40.977 2.118 0 100 0
N816 46.525 3.675 0 100 0
N829 40.340 2.223 0 100 0
N842 42.970 2.276 0 100 0
N849 39.241 1.956 0 100 0
N853 40.850 1.832 0 100 0
N857 51.380 4.132 0 100 0
N862 41.625 2.739 0 100 0
N863 41.495 2.647 0 100 0
N870 42.812 3.610 0 100 0
N914 40.350 1.869 0 100 0
N915 40.998 3.027 0 100 0
N916 42.980 2.086 0 100 0
N924 42.362 2.733 0 100 0
N930 38.762 4.209 0 100 0
N931 41.010 2.615 0 100 0
N954 41.536 3.663 0 100 0
N956 38.950 1.309 0 100 0
N957 50.558 2.917 0 100 0
N975 40.150 1.820 0 100 0
N976 39.960 2.008 0 100 0
N978 51.130 2.358 0 100 0
N984 41.090 1.442 0 100 0
N1003 43.341 0.627 0 100 0
N1007 40.700 2.178 0 100 0

[STORAGE]
;;Name Elev MaxDepth InitDepth Shape Coeff Expon Const SurDepth Fevap
MH4428367 47.068 3.235 0 FUNCTIONAL 0 0 0.8659 0 0
MH4428606 43.563 4.526 0 FUNCTIONAL 0 0 0.8659 0 0
MH4447602 42.658 2.364 0 FUNCTIONAL 0 0 0.8659 0 0
MH4429312 40.280 3.428 0 FUNCTIONAL 0 0 0.8659 0 0
MH4429136 40.448 4.504 0 FUNCTIONAL 0 0 0.8659 0 0
MH4448345 38.659 4.213 0 FUNCTIONAL 0 0 0.8659 0 0
MH4448419 38.561 4.273 0 FUNCTIONAL 0 0 0.8659 0 0
MH4427688 48.668 4.552 0 FUNCTIONAL 0 0 0.8659 0 0
MH4448853 38.351 3.912 0 FUNCTIONAL 0 0 0.8659 0 0
MH4428026 48.092 3.508 0 FUNCTIONAL 0 0 0.8659 0 0
MH4429035 43.298 3.435 0 FUNCTIONAL 0 0 0.8659 0 0
MH4449704 39.716 3.085 0 FUNCTIONAL 0 0 0.8659 0 0
MH4449118 39.195 3.705 0 FUNCTIONAL 0 0 0.8659 0 0
MH4447128 39.720 2.466 0 FUNCTIONAL 0 0 0.8659 0 0
MH4447726 39.174 3.733 0 FUNCTIONAL 0 0 0.8659 0 0
MH4428268 43.685 3.789 0 FUNCTIONAL 0 0 0.8659 0 0
MH4428636 41.957 3.620 0 FUNCTIONAL 0 0 0.8659 0 0
MH4447880 41.189 2.742 0 FUNCTIONAL 0 0 0.8659 0 0
MH4449785 37.918 4.427 0 FUNCTIONAL 0 0 0.8659 0 0
MH4447416 39.838 3.115 0 FUNCTIONAL 0 0 0.8659 0 0
MH4427425 55.793 2.366 0 FUNCTIONAL 0 0 0.8659 0 0
MH4449173 38.253 4.462 0 FUNCTIONAL 0 0 0.8659 0 0
MH4428713 40.640 2.564 0 FUNCTIONAL 0 0 0.8659 0 0
MH4428995 39.848 1.686 0 FUNCTIONAL 0 0 0.8659 0 0
MH4429357 39.238 1.795 0 FUNCTIONAL 0 0 0.8659 0 0
MH4449860 40.549 0.979 0 FUNCTIONAL 0 0 0.8659 0 0
MH4428765 40.840 1.940 0 FUNCTIONAL 0 0 0.8659 0 0
MH4429013 41.119 3.255 0 FUNCTIONAL 0 0 0.8659 0 0
MH8963773 38.757 2.530 0 FUNCTIONAL 0 0 0.8659 0 0
MH4426971 57.431 3.202 0 FUNCTIONAL 0 0 0.8659 0 0
MH4429645 42.161 2.709 0 FUNCTIONAL 0 0 0.8659 0 0
MH4449103 38.354 4.326 0 FUNCTIONAL 0 0 0.8659 0 0
MH4449849 38.165 4.088 0 FUNCTIONAL 0 0 0.8659 0 0
MH4447394 38.942 4.543 0 FUNCTIONAL 0 0 0.8659 0 0
MH4428426 49.214 2.848 0 FUNCTIONAL 0 0 0.8659 0 0
MH4428245 47.745 3.014 0 FUNCTIONAL 0 0 0.8659 0 0
MH4449882 39.770 2.956 0 FUNCTIONAL 0 0 0.8659 0 0
MH4429320 41.122 1.382 0 FUNCTIONAL 0 0 0.8659 0 0
MH4426673 59.141 2.568 0 FUNCTIONAL 0 0 0.8659 0 0
MH4428836 40.472 2.540 0 FUNCTIONAL 0 0 0.8659 0 0
MH4429107 39.756 2.389 0 FUNCTIONAL 0 0 0.8659 0 0
MH4448392 42.764 2.143 0 FUNCTIONAL 0 0 0.8659 0 0
MH4448813 42.167 2.369 0 FUNCTIONAL 0 0 0.8659 0 0
MH4427309 54.807 4.018 0 FUNCTIONAL 0 0 0.8659 0 0
MH4428797 44.045 2.997 0 FUNCTIONAL 0 0 0.8659 0 0
MH4449977 41.085 2.295 0 FUNCTIONAL 0 0 0.8659 0 0
MH4450193 37.568 4.379 0 FUNCTIONAL 0 0 0.8659 0 0
MH4428800 45.249 4.116 0 FUNCTIONAL 0 0 0.8659 0 0
MH4429411 42.201 2.496 0 FUNCTIONAL 0 0 0.8659 0 0
MH4427312 54.018 3.637 0 FUNCTIONAL 0 0 0.8659 0 0
MH4450100 40.320 1.658 0 FUNCTIONAL 0 0 0.8659 0 0
MH4450180 38.976 2.244 0 FUNCTIONAL 0 0 0.8659 0 0
MH4429471 40.384 2.241 0 FUNCTIONAL 0 0 0.8659 0 0
MH4429499 39.552 4.511 0 FUNCTIONAL 0 0 0.8659 0 0
MH4428146 45.035 2.688 0 FUNCTIONAL 0 0 0.8659 0 0
MH4450167 38.616 3.152 0 FUNCTIONAL 0 0 0.8659 0 0
MH4427714 49.726 2.906 0 FUNCTIONAL 0 0 0.8659 0 0
MH4450332 38.781 1.508 0 FUNCTIONAL 0 0 0.8659 0 0
MH4426979 57.462 2.919 0 FUNCTIONAL 0 0 0.8659 0 0
MH4427849 50.263 3.171 0 FUNCTIONAL 0 0 0.8659 0 0
MH4447346 40.500 2.014 0 FUNCTIONAL 0 0 0.8659 0 0
MH4427659 54.073 2.751 0 FUNCTIONAL 0 0 0.8659 0 0
MH4428583 40.972 2.492 0 FUNCTIONAL 0 0 0.8659 0 0
MH4427741 52.390 3.561 0 FUNCTIONAL 0 0 0.8659 0 0
MH4428137 44.429 2.991 0 FUNCTIONAL 0 0 0.8659 0 0
MH4449866 39.457 2.495 0 FUNCTIONAL 0 0 0.8659 0 0
MH4448929 40.259 3.409 0 FUNCTIONAL 0 0 0.8659 0 0
MH4428067 52.149 2.671 0 FUNCTIONAL 0 0 0.8659 0 0
MH4449503 41.640 2.035 0 FUNCTIONAL 0 0 0.8659 0 0
MH4428188 43.929 3.189 0 FUNCTIONAL 0 0 0.8659 0 0
MH4447452 38.744 2.846 0 FUNCTIONAL 0 0 0.8659 0 0

[OUTFALLS]
;;Name Invert Type Gated
OUT 37.434 FREE NO

[CONDUITS]
;;Name From To Length N InOffset OutOffset InitFlow
N582>MH4450193 N582 MH4450193 40.326 0.013 38.6500 37.6440 0
N197>MH4450193 N197 MH4450193 36.753 0.013 37.6900 37.5680 0
MH4449785>N197 MH4449785 N197 66.568 0.013 37.9180 37.6900 0
MH4449173>MH4449785 MH4449173 MH4449785 98.640 0.013 38.2530 37.9180 0
MH4449849>MH4449785 MH4449849 MH4449785 23.293 0.013 38.1650 38.0370 0
N97>MH4449785 N97 MH4449785 47.344 0.013 38.1700 38.0370 0
MH4448853>N97 MH4448853 N97 64.299 0.013 38.3510 38.1700 0
N711>MH4448853 N711 MH4448853 65.359 0.013 38.5360 38.3510 0
MH4447452>N711 MH4447452 N711 73.168 0.013 38.7440 38.5360 0
MH8963773>MH4447452 MH8963773 MH4447452 5.171 0.013 38.7570 38.7440 0
N379>MH8963773 N379 MH8963773 60.282 0.013 39.7350 38.8320 0
N265>MH8963773 N265 MH8963773 67.848 0.013 38.9600 38.7570 0
MH4429357>N265 MH4429357 N265 72.735 0.013 39.2380 38.9600 0
N325>MH4429357 N325 MH4429357 46.408 0.013 39.4800 39.2380 0
N460>MH4429357 N460 MH4429357 60.889 0.013 39.5400 39.2380 0
MH4428995>N460 MH4428995 N460 60.895 0.013 39.8480 39.5400 0
MH4428713>MH4428995 MH4428713 MH4428995 79.700 0.013 40.6400 39.8480 0
MH4428765>MH4428713 MH4428765 MH4428713 16.752 0.013 40.8400 40.6770 0
N660>MH4428713 N660 MH4428713 42.330 0.013 42.4200 40.6400 0
N659>N660 N659 N660 39.652 0.013 44.0800 42.4200 0
N303>MH4428765 N303 MH4428765 64.806 0.013 42.6300 40.8810 0
MH4429107>N325 MH4429107 N325 48.958 0.013 39.7560 39.4800 0
MH4428836>MH4429107 MH4428836 MH4429107 96.114 0.013 40.4720 39.7560 0
N914>MH4429107 N914 MH4429107 72.410 0.013 40.3500 39.7560 0
MH4428583>N914 MH4428583 N914 75.215 0.013 40.9720 40.3500 0
N842>MH4428583 N842 MH4428583 59.456 0.013 42.9700 40.9720 0
MH4428146>N842 MH4428146 N842 62.189 0.013 45.0350 42.9700 0
N695>MH4428146 N695 MH4428146 48.278 0.013 47.8700 45.0350 0
N978>N695 N978 N695 54.911 0.013 51.1300 47.8700 0
N563>MH4428836 N563 MH4428836 47.748 0.013 41.4300 40.5090 0
N799>MH4428836 N799 MH4428836 62.438 0.013 40.9770 40.6380 0
N863>MH4428836 N863 MH4428836 40.799 0.013 41.4950 40.4720 0
N862>N863 N862 N863 13.018 0.013 41.6250 41.4950 0
N562>N563 N562 N563 71.905 0.013 42.8700 41.4300 0
MH4428188>N562 MH4428188 N562 52.846 0.013 43.9290 42.8700 0
MH4428137>MH4428188 MH4428137 MH4428188 10.147 0.013 44.4290 43.9290 0
N722>MH4428137 N722 MH4428137 44.645 0.013 46.6600 44.4290 0
MH4427714>N722 MH4427714 N722 60.769 0.013 49.7260 46.6600 0
N492>MH4427714 N492 MH4427714 58.076 0.013 52.8100 49.7260 0
N491>N492 N491 N492 22.023 0.013 53.9670 52.8100 0
MH4450167>MH4449849 MH4450167 MH4449849 76.221 0.013 38.6160 38.1650 0
N702>MH4450167 N702 MH4450167 38.635 0.013 40.2800 39.7860 0
MH4450332>MH4450167 MH4450332 MH4450167 32.596 0.013 38.7810 38.6160 0
N956>MH4450332 N956 MH4450332 16.179 0.013 38.9500 38.7810 0
MH4450180>MH4450332 MH4450180 MH4450332 25.832 0.013 38.9760 38.8170 0
MH4450100>MH4450180 MH4450100 MH4450180 19.559 0.013 40.3200 39.0120 0
N849>MH4450180 N849 MH4450180 20.482 0.013 39.2410 38.9760 0
MH4449860>MH4450100 MH4449860 MH4450100 40.700 0.013 40.5490 40.3200 0
N272>MH4449860 N272 MH4449860 14.709 0.013 40.7500 40.5490 0
MH4449103>MH4449173 MH4449103 MH4449173 9.797 0.013 38.3540 38.2530 0
N328>MH4449103 N328 MH4449103 39.770 0.013 38.4450 38.3540 0
N930>MH4449103 N930 MH4449103 61.027 0.013 38.7620 38.3540 0
MH4447726>N930 MH4447726 N930 61.656 0.013 39.1740 38.7620 0
MH4447128>MH4447726 MH4447128 MH4447726 82.206 0.013 39.7200 39.1740 0
MH4447416>MH4447726 MH4447416 MH4447726 48.920 0.013 39.8380 39.2110 0
N198>MH4447416 N198 MH4447416 37.746 0.013 40.3160 39.8380 0
MH4447346>N198 MH4447346 N198 14.565 0.013 40.5000 40.3160 0
N984>MH4447346 N984 MH4447346 45.454 0.013 41.0900 40.5000 0
MH4429471>MH4447128 MH4429471 MH4447128 73.905 0.013 40.3840 39.7560 0
N676>MH4447128 N676 MH4447128 23.650 0.013 40.0100 39.7200 0
N853>MH4429471 N853 MH4429471 36.315 0.013 40.8500 40.3840 0
MH4429320>N853 MH4429320 N853 22.488 0.013 41.1220 40.8500 0
N483>MH4429320 N483 MH4429320 9.213 0.013 41.2140 41.1220 0
MH4448419>N328 MH4448419 N328 50.213 0.013 38.5610 38.4450 0
MH4448345>MH4448419 MH4448345 MH4448419 6.623 0.013 38.6590 38.5610 0
MH4449118>MH4448345 MH4449118 MH4448345 81.082 0.013 39.1950 38.6590 0
N599>MH4448345 N599 MH4448345 39.778 0.013 38.7660 38.6590 0
MH4447394>N599 MH4447394 N599 64.443 0.013 38.9420 38.7660 0
N25>MH4447394 N25 MH4447394 74.157 0.013 39.6410 39.0180 0
N578>MH4447394 N578 MH4447394 50.869 0.013 39.2680 39.0180 0
N675>MH4447394 N675 MH4447394 55.633 0.013 39.4750 39.0000 0
N693>N675 N693 N675 46.226 0.013 39.8700 39.4750 0
MH4448929>N693 MH4448929 N693 49.839 0.013 40.2590 39.8700 0
N258>MH4448929 N258 MH4448929 61.286 0.013 40.7940 40.2960 0
MH4447880>N258 MH4447880 N258 46.510 0.013 41.1890 40.7940 0
N188>MH4447880 N188 MH4447880 26.636 0.013 41.4200 41.1890 0
N656>MH4447880 N656 MH4447880 46.171 0.013 42.3370 41.1890 0
N655>N656 N655 N656 39.382 0.013 43.3170 42.3370 0
N1003>N655 N1003 N655 30.541 0.013 43.3410 43.3170 0
N397>N188 N397 N188 65.067 0.013 41.9600 41.4200 0
MH4429645>N397 MH4429645 N397 24.118 0.013 42.1610 41.9600 0
MH4447602>MH4429645 MH4447602 MH4429645 69.856 0.013 42.6580 42.1980 0
N924>MH4429645 N924 MH4429645 11.979 0.013 42.3620 42.1610 0
N22>MH4447602 N22 MH4447602 55.013 0.013 43.3500 42.6580 0
MH4429499>N578 MH4429499 N578 56.364 0.013 39.5520 39.2680 0
N43>MH4429499 N43 MH4429499 65.831 0.013 39.9970 39.5520 0
N915>MH4429499 N915 MH4429499 35.320 0.013 40.9980 39.5880 0
N688>N915 N688 N915 50.151 0.013 43.0000 40.9980 0
N687>N688 N687 N688 17.287 0.013 43.6600 43.0000 0
MH4429136>N43 MH4429136 N43 66.475 0.013 40.4480 39.9970 0
N13>MH4429136 N13 MH4429136 78.258 0.013 42.0560 40.4850 0
MH4429411>MH4429136 MH4429411 MH4429136 85.836 0.013 42.2010 40.4850 0
N644>MH4429136 N644 MH4429136 0.753 0.013 40.7180 40.4480 0
MH4428606>N13 MH4428606 N13 75.425 0.013 43.5630 42.0560 0
MH4428245>MH4428606 MH4428245 MH4428606 101.747 0.013 47.7450 43.5630 0
N779>MH4428606 N779 MH4428606 0.677 0.013 44.7120 43.6000 0
MH4428800>MH4428606 MH4428800 MH4428606 56.191 0.013 45.2490 43.5870 0
MH4428426>MH4428245 MH4428426 MH4428245 60.352 0.013 49.2140 47.7720 0
MH4427849>MH4428245 MH4427849 MH4428245 99.613 0.013 50.2630 47.7450 0
N751>MH4427849 N751 MH4427849 61.375 0.013 52.3630 50.2630 0
MH4428067>MH4427849 MH4428067 MH4427849 61.310 0.013 52.1490 50.2990 0
MH4429312>N25 MH4429312 N25 76.137 0.013 40.2800 39.6410 0
N124>MH4429312 N124 MH4429312 52.254 0.013 41.7690 40.3170 0
N327>MH4429312 N327 MH4429312 46.086 0.013 40.6610 40.2800 0
MH4429013>N327 MH4429013 N327 55.340 0.013 41.1190 40.6610 0
MH4428797>MH4429013 MH4428797 MH4429013 69.372 0.013 44.0450 41.1650 0
N954>MH4429013 N954 MH4429013 50.347 0.013 41.5360 41.1190 0
MH4428636>N954 MH4428636 N954 50.780 0.013 41.9570 41.5360 0
N168>MH4428636 N168 MH4428636 42.826 0.013 44.3670 41.9960 0
N870>MH4428636 N870 MH4428636 50.872 0.013 42.8120 41.9570 0
MH4428268>N870 MH4428268 N870 51.926 0.013 43.6850 42.8120 0
N166>MH4428268 N166 MH4428268 73.113 0.013 46.1090 43.6850 0
N566>MH4428268 N566 MH4428268 36.641 0.013 45.7600 43.7550 0
MH4428026>N566 MH4428026 N566 42.614 0.013 48.0920 45.7600 0
N113>MH4428026 N113 MH4428026 43.096 0.013 50.4980 48.0920 0
N957>MH4428026 N957 MH4428026 60.607 0.013 50.5580 48.1440 0
MH4427741>N113 MH4427741 N113 33.890 0.013 52.3900 50.4980 0
MH4427425>MH4427741 MH4427425 MH4427741 85.257 0.013 55.7930 52.9730 0
MH4427659>MH4427741 MH4427659 MH4427741 30.188 0.013 54.0850 52.3900 0
N212>MH4427425 N212 MH4427425 19.983 0.013 56.4540 55.7930 0
MH4427688>N166 MH4427688 N166 77.166 0.013 48.6680 46.1090 0
N85>MH4427688 N85 MH4427688 62.024 0.013 51.7970 48.7050 0
N857>MH4427688 N857 MH4427688 54.686 0.013 51.3800 48.6680 0
MH4427312>N857 MH4427312 N857 52.013 0.013 54.0180 51.3800 0
N647>MH4427312 N647 MH4427312 46.601 0.013 55.7900 54.0540 0
N468>MH4427312 N468 MH4427312 53.750 0.013 55.8000 54.0180 0
N467>N468 N467 N468 9.713 0.013 57.6230 55.8000 0
MH4426979>N647 MH4426979 N647 44.617 0.013 57.4620 55.7900 0
N515>MH4426979 N515 MH4426979 45.708 0.013 58.3000 57.4620 0
MH4426673>N515 MH4426673 N515 46.420 0.013 59.1410 58.3000 0
MH4427309>N85 MH4427309 N85 60.389 0.013 54.8070 51.7970 0
N275>MH4427309 N275 MH4427309 40.734 0.013 55.9740 54.8070 0
N274>N275 N274 N275 26.606 0.013 56.7360 55.9740 0
MH4426971>N274 MH4426971 N274 24.279 0.013 57.4310 56.7360 0
MH4428367>N168 MH4428367 N168 48.771 0.013 47.0680 44.3670 0
N10>MH4428367 N10 MH4428367 48.753 0.013 49.7830 47.0680 0
MH4428067>N10 MH4428067 N10 42.497 0.013 52.1490 49.7830 0
N542>MH4428797 N542 MH4428797 23.936 0.013 45.2850 44.0810 0
N816>MH4428797 N816 MH4428797 54.507 0.013 46.5250 44.0450 0
MH4428426>N816 MH4428426 N816 59.115 0.013 49.2140 46.5250 0
MH4429035>N124 MH4429035 N124 55.022 0.013 43.2980 41.7690 0
MH4428800>MH4429035 MH4428800 MH4429035 78.434 0.013 45.2490 43.2980 0
MH4449704>MH4449118 MH4449704 MH4449118 80.162 0.013 39.7160 39.1950 0
N781>MH4449118 N781 MH4449118 76.188 0.013 40.7400 39.2320 0
N1007>MH4449118 N1007 MH4449118 57.745 0.013 40.7000 39.2320 0
MH4449882>MH4449704 MH4449882 MH4449704 35.268 0.013 39.7700 39.7530 0
N552>MH4449704 N552 MH4449704 54.014 0.013 40.3940 39.7160 0
N931>MH4449704 N931 MH4449704 74.474 0.013 41.0100 39.7530 0
MH4449977>N552 MH4449977 N552 55.091 0.013 41.0850 40.3940 0
MH4449503>MH4449977 MH4449503 MH4449977 83.750 0.013 41.6400 41.1220 0
MH4448813>MH4449503 MH4448813 MH4449503 87.105 0.013 42.1670 41.6400 0
MH4448392>MH4448813 MH4448392 MH4448813 58.548 0.013 42.7640 42.1670 0
N916>MH4448392 N916 MH4448392 24.121 0.013 42.9800 42.7640 0
N829>MH4449882 N829 MH4449882 45.055 0.013 40.3400 39.7700 0
MH4449866>N582 MH4449866 N582 32.358 0.013 39.4570 38.6500 0
N976>MH4449866 N976 MH4449866 25.031 0.013 39.9600 39.4570 0
N975>N976 N975 N976 9.513 0.013 40.1500 39.9600 0
MH4450193>OUT MH4450193 OUT 40.460 0.013 37.5680 37.4340 0

[XSECTIONS]
;;Link Shape Geom1 Geom2 Geom3 Geom4 Barrels
N582>MH4450193 CIRCULAR 0.150 0 0 0 1
N197>MH4450193 CIRCULAR 0.225 0 0 0 1
MH4449785>N197 CIRCULAR 0.225 0 0 0 1
MH4449173>MH4449785 CIRCULAR 0.225 0 0 0 1
MH4449849>MH4449785 CIRCULAR 0.150 0 0 0 1
N97>MH4449785 CIRCULAR 0.225 0 0 0 1
MH4448853>N97 CIRCULAR 0.225 0 0 0 1
N711>MH4448853 CIRCULAR 0.225 0 0 0 1
MH4447452>N711 CIRCULAR 0.225 0 0 0 1
MH8963773>MH4447452 CIRCULAR 0.225 0 0 0 1
N379>MH8963773 CIRCULAR 0.143 0 0 0 1
N265>MH8963773 CIRCULAR 0.225 0 0 0 1
MH4429357>N265 CIRCULAR 0.225 0 0 0 1
N325>MH4429357 CIRCULAR 0.150 0 0 0 1
N460>MH4429357 CIRCULAR 0.150 0 0 0 1
MH4428995>N460 CIRCULAR 0.150 0 0 0 1
MH4428713>MH4428995 CIRCULAR 0.150 0 0 0 1
MH4428765>MH4428713 CIRCULAR 0.150 0 0 0 1
N660>MH4428713 CIRCULAR 0.150 0 0 0 1
N659>N660 CIRCULAR 0.150 0 0 0 1
N303>MH4428765 CIRCULAR 0.150 0 0 0 1
MH4429107>N325 CIRCULAR 0.150 0 0 0 1
MH4428836>MH4429107 CIRCULAR 0.150 0 0 0 1
N914>MH4429107 CIRCULAR 0.150 0 0 0 1
MH4428583>N914 CIRCULAR 0.150 0 0 0 1
N842>MH4428583 CIRCULAR 0.150 0 0 0 1
MH4428146>N842 CIRCULAR 0.150 0 0 0 1
N695>MH4428146 CIRCULAR 0.150 0 0 0 1
N978>N695 CIRCULAR 0.150 0 0 0 1
N563>MH4428836 CIRCULAR 0.150 0 0 0 1
N799>MH4428836 CIRCULAR 0.143 0 0 0 1
N863>MH4428836 CIRCULAR 0.150 0 0 0 1
N862>N863 CIRCULAR 0.143 0 0 0 1
N562>N563 CIRCULAR 0.150 0 0 0 1
MH4428188>N562 CIRCULAR 0.150 0 0 0 1
MH4428137>MH4428188 CIRCULAR 0.150 0 0 0 1
N722>MH4428137 CIRCULAR 0.150 0 0 0 1
MH4427714>N722 CIRCULAR 0.150 0 0 0 1
N492>MH4427714 CIRCULAR 0.150 0 0 0 1
N491>N492 CIRCULAR 0.143 0 0 0 1
MH4450167>MH4449849 CIRCULAR 0.150 0 0 0 1
N702>MH4450167 CIRCULAR 0.143 0 0 0 1
MH4450332>MH4450167 CIRCULAR 0.150 0 0 0 1
N956>MH4450332 CIRCULAR 0.150 0 0 0 1
MH4450180>MH4450332 CIRCULAR 0.150 0 0 0 1
MH4450100>MH4450180 CIRCULAR 0.150 0 0 0 1
N849>MH4450180 CIRCULAR 0.150 0 0 0 1
MH4449860>MH4450100 CIRCULAR 0.150 0 0 0 1
N272>MH4449860 CIRCULAR 0.150 0 0 0 1
MH4449103>MH4449173 CIRCULAR 0.225 0 0 0 1
N328>MH4449103 CIRCULAR 0.225 0 0 0 1
N930>MH4449103 CIRCULAR 0.150 0 0 0 1
MH4447726>N930 CIRCULAR 0.150 0 0 0 1
MH4447128>MH4447726 CIRCULAR 0.150 0 0 0 1
MH4447416>MH4447726 CIRCULAR 0.150 0 0 0 1
N198>MH4447416 CIRCULAR 0.150 0 0 0 1
MH4447346>N198 CIRCULAR 0.150 0 0 0 1
N984>MH4447346 CIRCULAR 0.150 0 0 0 1
MH4429471>MH4447128 CIRCULAR 0.150 0 0 0 1
N676>MH4447128 CIRCULAR 0.150 0 0 0 1
N853>MH4429471 CIRCULAR 0.150 0 0 0 1
MH4429320>N853 CIRCULAR 0.150 0 0 0 1
N483>MH4429320 CIRCULAR 0.143 0 0 0 1
MH4448419>N328 CIRCULAR 0.225 0 0 0 1
MH4448345>MH4448419 CIRCULAR 0.225 0 0 0 1
MH4449118>MH4448345 CIRCULAR 0.150 0 0 0 1
N599>MH4448345 CIRCULAR 0.225 0 0 0 1
MH4447394>N599 CIRCULAR 0.225 0 0 0 1
N25>MH4447394 CIRCULAR 0.150 0 0 0 1
N578>MH4447394 CIRCULAR 0.150 0 0 0 1
N675>MH4447394 CIRCULAR 0.150 0 0 0 1
N693>N675 CIRCULAR 0.150 0 0 0 1
MH4448929>N693 CIRCULAR 0.150 0 0 0 1
N258>MH4448929 CIRCULAR 0.150 0 0 0 1
MH4447880>N258 CIRCULAR 0.150 0 0 0 1
N188>MH4447880 CIRCULAR 0.150 0 0 0 1
N656>MH4447880 CIRCULAR 0.150 0 0 0 1
N655>N656 CIRCULAR 0.150 0 0 0 1
N1003>N655 CIRCULAR 0.143 0 0 0 1
N397>N188 CIRCULAR 0.150 0 0 0 1
MH4429645>N397 CIRCULAR 0.150 0 0 0 1
MH4447602>MH4429645 CIRCULAR 0.150 0 0 0 1
N924>MH4429645 CIRCULAR 0.150 0 0 0 1
N22>MH4447602 CIRCULAR 0.150 0 0 0 1
MH4429499>N578 CIRCULAR 0.150 0 0 0 1
N43>MH4429499 CIRCULAR 0.150 0 0 0 1
N915>MH4429499 CIRCULAR 0.150 0 0 0 1
N688>N915 CIRCULAR 0.150 0 0 0 1
N687>N688 CIRCULAR 0.150 0 0 0 1
MH4429136>N43 CIRCULAR 0.150 0 0 0 1
N13>MH4429136 CIRCULAR 0.150 0 0 0 1
MH4429411>MH4429136 CIRCULAR 0.150 0 0 0 1
N644>MH4429136 CIRCULAR 0.150 0 0 0 1
MH4428606>N13 CIRCULAR 0.150 0 0 0 1
MH4428245>MH4428606 CIRCULAR 0.150 0 0 0 1
N779>MH4428606 CIRCULAR 0.150 0 0 0 1
MH4428800>MH4428606 CIRCULAR 0.150 0 0 0 1
MH4428426>MH4428245 CIRCULAR 0.150 0 0 0 1
MH4427849>MH4428245 CIRCULAR 0.150 0 0 0 1
N751>MH4427849 CIRCULAR 0.150 0 0 0 1
MH4428067>MH4427849 CIRCULAR 0.150 0 0 0 1
MH4429312>N25 CIRCULAR 0.150 0 0 0 1
N124>MH4429312 CIRCULAR 0.150 0 0 0 1
N327>MH4429312 CIRCULAR 0.150 0 0 0 1
MH4429013>N327 CIRCULAR 0.150 0 0 0 1
MH4428797>MH4429013 CIRCULAR 0.150 0 0 0 1
N954>MH4429013 CIRCULAR 0.150 0 0 0 1
MH4428636>N954 CIRCULAR 0.150 0 0 0 1
N168>MH4428636 CIRCULAR 0.150 0 0 0 1
N870>MH4428636 CIRCULAR 0.150 0 0 0 1
MH4428268>N870 CIRCULAR 0.150 0 0 0 1
N166>MH4428268 CIRCULAR 0.150 0 0 0 1
N566>MH4428268 CIRCULAR 0.150 0 0 0 1
MH4428026>N566 CIRCULAR 0.150 0 0 0 1
N113>MH4428026 CIRCULAR 0.150 0 0 0 1
N957>MH4428026 CIRCULAR 0.150 0 0 0 1
MH4427741>N113 CIRCULAR 0.150 0 0 0 1
MH4427425>MH4427741 CIRCULAR 0.150 0 0 0 1
MH4427659>MH4427741 CIRCULAR 0.150 0 0 0 1
N212>MH4427425 CIRCULAR 0.150 0 0 0 1
MH4427688>N166 CIRCULAR 0.150 0 0 0 1
N85>MH4427688 CIRCULAR 0.150 0 0 0 1
N857>MH4427688 CIRCULAR 0.150 0 0 0 1
MH4427312>N857 CIRCULAR 0.150 0 0 0 1
N647>MH4427312 CIRCULAR 0.150 0 0 0 1
N468>MH4427312 CIRCULAR 0.150 0 0 0 1
N467>N468 CIRCULAR 0.143 0 0 0 1
MH4426979>N647 CIRCULAR 0.150 0 0 0 1
N515>MH4426979 CIRCULAR 0.150 0 0 0 1
MH4426673>N515 CIRCULAR 0.150 0 0 0 1
MH4427309>N85 CIRCULAR 0.150 0 0 0 1
N275>MH4427309 CIRCULAR 0.150 0 0 0 1
N274>N275 CIRCULAR 0.150 0 0 0 1
MH4426971>N274 CIRCULAR 0.150 0 0 0 1
MH4428367>N168 CIRCULAR 0.150 0 0 0 1
N10>MH4428367 CIRCULAR 0.150 0 0 0 1
MH4428067>N10 CIRCULAR 0.150 0 0 0 1
N542>MH4428797 CIRCULAR 0.150 0 0 0 1
N816>MH4428797 CIRCULAR 0.150 0 0 0 1
MH4428426>N816 CIRCULAR 0.150 0 0 0 1
MH4429035>N124 CIRCULAR 0.150 0 0 0 1
MH4428800>MH4429035 CIRCULAR 0.150 0 0 0 1
MH4449704>MH4449118 CIRCULAR 0.150 0 0 0 1
N781>MH4449118 CIRCULAR 0.150 0 0 0 1
N1007>MH4449118 CIRCULAR 0.150 0 0 0 1
MH4449882>MH4449704 CIRCULAR 0.150 0 0 0 1
N552>MH4449704 CIRCULAR 0.150 0 0 0 1
N931>MH4449704 CIRCULAR 0.150 0 0 0 1
MH4449977>N552 CIRCULAR 0.150 0 0 0 1
MH4449503>MH4449977 CIRCULAR 0.150 0 0 0 1
MH4448813>MH4449503 CIRCULAR 0.150 0 0 0 1
MH4448392>MH4448813 CIRCULAR 0.150 0 0 0 1
N916>MH4448392 CIRCULAR 0.150 0 0 0 1
N829>MH4449882 CIRCULAR 0.150 0 0 0 1
MH4449866>N582 CIRCULAR 0.150 0 0 0 1
N976>MH4449866 CIRCULAR 0.150 0 0 0 1
N975>N976 CIRCULAR 0.143 0 0 0 1
MH4450193>OUT CIRCULAR 0.225 0 0 0 1

[TIMESERIES]
;;Name Time(h) Value
Q0 0.00000 0.264456
Q0 2.00000 0.264456
Q1 0.00000 0.264529
Q1 2.00000 0.264529
Q2 0.00000 0.347997
Q2 2.00000 0.347997
Q3 0.00000 0.347755
Q3 2.00000 0.347755
Q4 0.00000 0.220050
Q4 2.00000 0.220050
Q5 0.00000 0.302571
Q5 2.00000 0.302571
Q6 0.00000 0.373992
Q6 2.00000 0.373992
Q7 0.00000 0.377646
Q7 2.00000 0.377646
Q8 0.00000 0.323769
Q8 2.00000 0.323769
Q9 0.00000 0.344343
Q9 2.00000 0.344343
Q10 0.00000 0.026494
Q10 2.00000 0.026494
Q11 0.00000 0.281871
Q11 2.00000 0.281871
Q12 0.00000 0.294391
Q12 2.00000 0.294391
Q13 0.00000 0.435979
Q13 2.00000 0.435979
Q14 0.00000 0.361362
Q14 2.00000 0.361362
Q15 0.00000 0.212525
Q15 2.00000 0.212525
Q16 0.00000 0.241830
Q16 2.00000 0.241830
Q17 0.00000 0.216752
Q17 2.00000 0.216752
Q18 0.00000 0.312679
Q18 2.00000 0.312679
Q19 0.00000 0.255311
Q19 2.00000 0.255311
Q20 0.00000 0.332222
Q20 2.00000 0.332222
Q21 0.00000 0.347476
Q21 2.00000 0.347476
Q22 0.00000 0.398268
Q22 2.00000 0.398268
Q23 0.00000 0.304493
Q23 2.00000 0.304493
Q24 0.00000 0.419766
Q24 2.00000 0.419766
Q25 0.00000 0.253998
Q25 2.00000 0.253998
Q26 0.00000 0.217600
Q26 2.00000 0.217600
Q27 0.00000 0.249414
Q27 2.00000 0.249414
Q28 0.00000 0.141266
Q28 2.00000 0.141266
Q29 0.00000 0.255483
Q29 2.00000 0.255483
Q30 0.00000 0.312570
Q30 2.00000 0.312570
Q31 0.00000 0.216457
Q31 2.00000 0.216457
Q32 0.00000 0.220430
Q32 2.00000 0.220430
Q33 0.00000 0.218827
Q33 2.00000 0.218827
Q34 0.00000 0.114654
Q34 2.00000 0.114654
Q35 0.00000 0.398898
Q35 2.00000 0.398898
Q36 0.00000 0.464006
Q36 2.00000 0.464006
Q37 0.00000 6.152134
Q37 2.00000 6.152134
Q38 0.00000 0.301449
Q38 2.00000 0.301449
Q39 0.00000 0.291441
Q39 2.00000 0.291441
Q40 0.00000 0.348811
Q40 2.00000 0.348811
Q41 0.00000 0.329262
Q41 2.00000 0.329262
Q42 0.00000 0.081983
Q42 2.00000 0.081983
Q43 0.00000 0.185948
Q43 2.00000 0.185948
Q44 0.00000 0.141144
Q44 2.00000 0.141144
Q45 0.00000 0.209234
Q45 2.00000 0.209234
Q46 0.00000 0.317096
Q46 2.00000 0.317096
Q47 0.00000 0.090156
Q47 2.00000 0.090156
Q48 0.00000 0.208781
Q48 2.00000 0.208781
Q49 0.00000 0.244509
Q49 2.00000 0.244509
Q50 0.00000 0.219067
Q50 2.00000 0.219067
Q51 0.00000 0.193803
Q51 2.00000 0.193803
Q52 0.00000 0.252701
Q52 2.00000 0.252701
Q53 0.00000 0.032257
Q53 2.00000 0.032257
Q54 0.00000 0.131838
Q54 2.00000 0.131838
Q55 0.00000 0.108047
Q55 2.00000 0.108047
Q56 0.00000 0.352862
Q56 2.00000 0.352862
Q57 0.00000 0.039189
Q57 2.00000 0.039189
Q58 0.00000 0.093171
Q58 2.00000 0.093171
Q59 0.00000 0.304067
Q59 2.00000 0.304067
Q60 0.00000 0.628332
Q60 2.00000 0.628332
Q61 0.00000 0.453282
Q61 2.00000 0.453282
Q62 0.00000 0.278278
Q62 2.00000 0.278278
Q63 0.00000 0.073575
Q63 2.00000 0.073575
Q64 0.00000 0.261296
Q64 2.00000 0.261296
Q65 0.00000 0.152645
Q65 2.00000 0.152645
Q66 0.00000 0.048424
Q66 2.00000 0.048424
Q67 0.00000 0.159396
Q67 2.00000 0.159396
Q68 0.00000 0.145964
Q68 2.00000 0.145964
Q69 0.00000 0.278601
Q69 2.00000 0.278601
Q70 0.00000 0.255123
Q70 2.00000 0.255123
Q71 0.00000 0.205982
Q71 2.00000 0.205982
Q72 0.00000 0.430752
Q72 2.00000 0.430752
Q73 0.00000 0.207406
Q73 2.00000 0.207406
Q74 0.00000 0.292062
Q74 2.00000 0.292062
Q75 0.00000 0.417865
Q75 2.00000 0.417865
Q76 0.00000 0.368870
Q76 2.00000 0.368870
Q77 0.00000 0.118892
Q77 2.00000 0.118892
Q78 0.00000 0.323785
Q78 2.00000 0.323785
Q79 0.00000 0.243511
Q79 2.00000 0.243511
Q80 0.00000 0.239203
Q80 2.00000 0.239203
Q81 0.00000 0.391786
Q81 2.00000 0.391786
Q82 0.00000 0.248863
Q82 2.00000 0.248863
Q83 0.00000 0.158138
Q83 2.00000 0.158138
Q84 0.00000 0.238197
Q84 2.00000 0.238197
Q85 0.00000 0.172879
Q85 2.00000 0.172879
Q87 0.00000 0.700537
Q87 2.00000 0.700537
Q88 0.00000 0.205409
Q88 2.00000 0.205409
Q89 0.00000 0.389642
Q89 2.00000 0.389642
Q90 0.00000 0.003011
Q90 2.00000 0.003011
Q91 0.00000 0.221127
Q91 2.00000 0.221127
Q92 0.00000 0.231199
Q92 2.00000 0.231199
Q93 0.00000 0.078236
Q93 2.00000 0.078236
Q94 0.00000 0.126475
Q94 2.00000 0.126475
Q95 0.00000 0.203823
Q95 2.00000 0.203823
Q96 0.00000 0.207831
Q96 2.00000 0.207831
Q97 0.00000 0.193329
Q97 2.00000 0.193329
Q98 0.00000 0.204043
Q98 2.00000 0.204043
Q99 0.00000 0.399788
Q99 2.00000 0.399788
Q100 0.00000 0.245678
Q100 2.00000 0.245678
Q101 0.00000 0.117750
Q101 2.00000 0.117750
Q102 0.00000 0.260180
Q102 2.00000 0.260180
Q103 0.00000 0.115445
Q103 2.00000 0.115445
Q104 0.00000 0.281623
Q104 2.00000 0.281623
Q105 0.00000 0.208052
Q105 2.00000 0.208052
Q106 0.00000 0.250981
Q106 2.00000 0.250981
Q107 0.00000 0.318201
Q107 2.00000 0.318201
Q108 0.00000 0.166114
Q108 2.00000 0.166114
Q109 0.00000 0.351181
Q109 2.00000 0.351181
Q110 0.00000 0.365601
Q110 2.00000 0.365601
Q111 0.00000 0.335668
Q111 2.00000 0.335668
Q112 0.00000 0.224876
Q112 2.00000 0.224876
Q113 0.00000 0.141958
Q113 2.00000 0.141958
Q114 0.00000 0.259486
Q114 2.00000 0.259486
Q115 0.00000 0.268647
Q115 2.00000 0.268647
Q116 0.00000 0.433175
Q116 2.00000 0.433175
Q117 0.00000 0.002709
Q117 2.00000 0.002709
Q118 0.00000 0.408917
Q118 2.00000 0.408917
Q119 0.00000 0.058260
Q119 2.00000 0.058260
Q120 0.00000 0.178623
Q120 2.00000 0.178623
Q121 0.00000 0.272901
Q121 2.00000 0.272901
Q122 0.00000 0.287472
Q122 2.00000 0.287472
Q123 0.00000 0.203367
Q123 2.00000 0.203367
Q124 0.00000 0.307268
Q124 2.00000 0.307268
Q125 0.00000 0.405027
Q125 2.00000 0.405027
Q126 0.00000 0.105076
Q126 2.00000 0.105076
Q127 0.00000 0.158707
Q127 2.00000 0.158707
Q128 0.00000 0.168407
Q128 2.00000 0.168407
Q129 0.00000 0.253467
Q129 2.00000 0.253467
Q130 0.00000 0.098367
Q130 2.00000 0.098367
Q131 0.00000 0.186344
Q131 2.00000 0.186344
Q132 0.00000 0.249785
Q132 2.00000 0.249785
Q133 0.00000 0.040586
Q133 2.00000 0.040586
Q134 0.00000 0.175726
Q134 2.00000 0.175726
Q135 0.00000 0.234077
Q135 2.00000 0.234077
Q136 0.00000 0.359083
Q136 2.00000 0.359083
Q137 0.00000 0.141280
Q137 2.00000 0.141280
Q138 0.00000 0.154356
Q138 2.00000 0.154356
Q139 0.00000 0.047918
Q139 2.00000 0.047918
Q140 0.00000 0.336700
Q140 2.00000 0.336700
Q141 0.00000 0.355766
Q141 2.00000 0.355766
Q142 0.00000 0.530969
Q142 2.00000 0.530969
Q143 0.00000 0.427591
Q143 2.00000 0.427591
Q144 0.00000 0.269253
Q144 2.00000 0.269253
Q145 0.00000 0.247685
Q145 2.00000 0.247685
Q146 0.00000 0.076290
Q146 2.00000 0.076290
Q147 0.00000 0.335022
Q147 2.00000 0.335022
Q148 0.00000 0.373691
Q148 2.00000 0.373691
Q149 0.00000 0.072773
Q149 2.00000 0.072773
Q150 0.00000 0.134847
Q150 2.00000 0.134847
Q151 0.00000 0.323809
Q151 2.00000 0.323809
Q152 0.00000 0.262834
Q152 2.00000 0.262834
Q153 0.00000 0.180035
Q153 2.00000 0.180035
Q154 0.00000 0.323573
Q154 2.00000 0.323573

[INFLOWS]
;;Node Constituent TimeSeries Type Mfactor Sfactor Baseline
N10 FLOW Q0 FLOW 1.0 1.0 0
MH4428367 FLOW Q1 FLOW 1.0 1.0 0
MH4428606 FLOW Q2 FLOW 1.0 1.0 0
N13 FLOW Q3 FLOW 1.0 1.0 0
N22 FLOW Q4 FLOW 1.0 1.0 0
MH4447602 FLOW Q5 FLOW 1.0 1.0 0
MH4429312 FLOW Q6 FLOW 1.0 1.0 0
N25 FLOW Q7 FLOW 1.0 1.0 0
MH4429136 FLOW Q8 FLOW 1.0 1.0 0
N43 FLOW Q9 FLOW 1.0 1.0 0
MH4448345 FLOW Q10 FLOW 1.0 1.0 0
MH4448419 FLOW Q11 FLOW 1.0 1.0 0
N85 FLOW Q12 FLOW 1.0 1.0 0
MH4427688 FLOW Q13 FLOW 1.0 1.0 0
MH4448853 FLOW Q14 FLOW 1.0 1.0 0
N97 FLOW Q15 FLOW 1.0 1.0 0
N113 FLOW Q16 FLOW 1.0 1.0 0
MH4428026 FLOW Q17 FLOW 1.0 1.0 0
MH4429035 FLOW Q18 FLOW 1.0 1.0 0
N124 FLOW Q19 FLOW 1.0 1.0 0
MH4449704 FLOW Q20 FLOW 1.0 1.0 0
MH4449118 FLOW Q21 FLOW 1.0 1.0 0
MH4447128 FLOW Q22 FLOW 1.0 1.0 0
MH4447726 FLOW Q23 FLOW 1.0 1.0 0
N166 FLOW Q24 FLOW 1.0 1.0 0
MH4428268 FLOW Q25 FLOW 1.0 1.0 0
N168 FLOW Q26 FLOW 1.0 1.0 0
MH4428636 FLOW Q27 FLOW 1.0 1.0 0
N188 FLOW Q28 FLOW 1.0 1.0 0
MH4447880 FLOW Q29 FLOW 1.0 1.0 0
MH4449785 FLOW Q30 FLOW 1.0 1.0 0
N197 FLOW Q31 FLOW 1.0 1.0 0
N198 FLOW Q32 FLOW 1.0 1.0 0
MH4447416 FLOW Q33 FLOW 1.0 1.0 0
N212 FLOW Q34 FLOW 1.0 1.0 0
MH4427425 FLOW Q35 FLOW 1.0 1.0 0
MH4449173 FLOW Q36 FLOW 1.0 1.0 0
MH4428713 FLOW Q37 FLOW 1.0 1.0 0
MH4428995 FLOW Q38 FLOW 1.0 1.0 0
N258 FLOW Q39 FLOW 1.0 1.0 0
MH4429357 FLOW Q40 FLOW 1.0 1.0 0
N265 FLOW Q41 FLOW 1.0 1.0 0
N272 FLOW Q42 FLOW 1.0 1.0 0
MH4449860 FLOW Q43 FLOW 1.0 1.0 0
N274 FLOW Q44 FLOW 1.0 1.0 0
N275 FLOW Q45 FLOW 1.0 1.0 0
N303 FLOW Q46 FLOW 1.0 1.0 0
MH4428765 FLOW Q47 FLOW 1.0 1.0 0
N325 FLOW Q48 FLOW 1.0 1.0 0
MH4429013 FLOW Q49 FLOW 1.0 1.0 0
N327 FLOW Q50 FLOW 1.0 1.0 0
N328 FLOW Q51 FLOW 1.0 1.0 0
N379 FLOW Q52 FLOW 1.0 1.0 0
MH8963773 FLOW Q53 FLOW 1.0 1.0 0
MH4426971 FLOW Q54 FLOW 1.0 1.0 0
MH4429645 FLOW Q55 FLOW 1.0 1.0 0
N397 FLOW Q56 FLOW 1.0 1.0 0
MH4449103 FLOW Q57 FLOW 1.0 1.0 0
MH4449849 FLOW Q58 FLOW 1.0 1.0 0
MH4447394 FLOW Q59 FLOW 1.0 1.0 0
MH4428426 FLOW Q60 FLOW 1.0 1.0 0
MH4428245 FLOW Q61 FLOW 1.0 1.0 0
N460 FLOW Q62 FLOW 1.0 1.0 0
N467 FLOW Q63 FLOW 1.0 1.0 0
N468 FLOW Q64 FLOW 1.0 1.0 0
MH4449882 FLOW Q65 FLOW 1.0 1.0 0
N483 FLOW Q66 FLOW 1.0 1.0 0
MH4429320 FLOW Q67 FLOW 1.0 1.0 0
N491 FLOW Q68 FLOW 1.0 1.0 0
N492 FLOW Q69 FLOW 1.0 1.0 0
MH4426673 FLOW Q70 FLOW 1.0 1.0 0
N515 FLOW Q71 FLOW 1.0 1.0 0
MH4428836 FLOW Q72 FLOW 1.0 1.0 0
MH4429107 FLOW Q73 FLOW 1.0 1.0 0
MH4448392 FLOW Q74 FLOW 1.0 1.0 0
MH4448813 FLOW Q75 FLOW 1.0 1.0 0
MH4427309 FLOW Q76 FLOW 1.0 1.0 0
N542 FLOW Q77 FLOW 1.0 1.0 0
MH4428797 FLOW Q78 FLOW 1.0 1.0 0
MH4449977 FLOW Q79 FLOW 1.0 1.0 0
N552 FLOW Q80 FLOW 1.0 1.0 0
N562 FLOW Q81 FLOW 1.0 1.0 0
N563 FLOW Q82 FLOW 1.0 1.0 0
N566 FLOW Q83 FLOW 1.0 1.0 0
N578 FLOW Q84 FLOW 1.0 1.0 0
N582 FLOW Q85 FLOW 1.0 1.0 0
MH4428800 FLOW Q87 FLOW 1.0 1.0 0
N599 FLOW Q88 FLOW 1.0 1.0 0
MH4429411 FLOW Q89 FLOW 1.0 1.0 0
N644 FLOW Q90 FLOW 1.0 1.0 0
N647 FLOW Q91 FLOW 1.0 1.0 0
MH4427312 FLOW Q92 FLOW 1.0 1.0 0
MH4450100 FLOW Q93 FLOW 1.0 1.0 0
MH4450180 FLOW Q94 FLOW 1.0 1.0 0
N655 FLOW Q95 FLOW 1.0 1.0 0
N656 FLOW Q96 FLOW 1.0 1.0 0
N659 FLOW Q97 FLOW 1.0 1.0 0
N660 FLOW Q98 FLOW 1.0 1.0 0
MH4429471 FLOW Q99 FLOW 1.0 1.0 0
N675 FLOW Q100 FLOW 1.0 1.0 0
N676 FLOW Q101 FLOW 1.0 1.0 0
MH4429499 FLOW Q102 FLOW 1.0 1.0 0
N687 FLOW Q103 FLOW 1.0 1.0 0
N688 FLOW Q104 FLOW 1.0 1.0 0
N693 FLOW Q105 FLOW 1.0 1.0 0
N695 FLOW Q106 FLOW 1.0 1.0 0
MH4428146 FLOW Q107 FLOW 1.0 1.0 0
N702 FLOW Q108 FLOW 1.0 1.0 0
MH4450167 FLOW Q109 FLOW 1.0 1.0 0
N711 FLOW Q110 FLOW 1.0 1.0 0
MH4427714 FLOW Q111 FLOW 1.0 1.0 0
N722 FLOW Q112 FLOW 1.0 1.0 0
MH4450332 FLOW Q113 FLOW 1.0 1.0 0
MH4426979 FLOW Q114 FLOW 1.0 1.0 0
N751 FLOW Q115 FLOW 1.0 1.0 0
MH4427849 FLOW Q116 FLOW 1.0 1.0 0
N779 FLOW Q117 FLOW 1.0 1.0 0
N781 FLOW Q118 FLOW 1.0 1.0 0
MH4447346 FLOW Q119 FLOW 1.0 1.0 0
MH4427659 FLOW Q120 FLOW 1.0 1.0 0
N799 FLOW Q121 FLOW 1.0 1.0 0
N816 FLOW Q122 FLOW 1.0 1.0 0
N829 FLOW Q123 FLOW 1.0 1.0 0
N842 FLOW Q124 FLOW 1.0 1.0 0
MH4428583 FLOW Q125 FLOW 1.0 1.0 0
N849 FLOW Q126 FLOW 1.0 1.0 0
MH4427741 FLOW Q127 FLOW 1.0 1.0 0
N853 FLOW Q128 FLOW 1.0 1.0 0
N857 FLOW Q129 FLOW 1.0 1.0 0
N862 FLOW Q130 FLOW 1.0 1.0 0
N863 FLOW Q131 FLOW 1.0 1.0 0
N870 FLOW Q132 FLOW 1.0 1.0 0
MH4428137 FLOW Q133 FLOW 1.0 1.0 0
MH4449866 FLOW Q134 FLOW 1.0 1.0 0
MH4448929 FLOW Q135 FLOW 1.0 1.0 0
N914 FLOW Q136 FLOW 1.0 1.0 0
N915 FLOW Q137 FLOW 1.0 1.0 0
N916 FLOW Q138 FLOW 1.0 1.0 0
N924 FLOW Q139 FLOW 1.0 1.0 0
N930 FLOW Q140 FLOW 1.0 1.0 0
N931 FLOW Q141 FLOW 1.0 1.0 0
MH4428067 FLOW Q142 FLOW 1.0 1.0 0
MH4449503 FLOW Q143 FLOW 1.0 1.0 0
MH4428188 FLOW Q144 FLOW 1.0 1.0 0
N954 FLOW Q145 FLOW 1.0 1.0 0
N956 FLOW Q146 FLOW 1.0 1.0 0
N957 FLOW Q147 FLOW 1.0 1.0 0
MH4447452 FLOW Q148 FLOW 1.0 1.0 0
N975 FLOW Q149 FLOW 1.0 1.0 0
N976 FLOW Q150 FLOW 1.0 1.0 0
N978 FLOW Q151 FLOW 1.0 1.0 0
N984 FLOW Q152 FLOW 1.0 1.0 0
N1003 FLOW Q153 FLOW 1.0 1.0 0
N1007 FLOW Q154 FLOW 1.0 1.0 0
