[OPTIONS]
FLOW_UNITS            LPS
INFILTRATION          HORTON
FLOW_ROUTING          DYNWAVE
LINK_OFFSETS          ELEVATION
START_DATE            01/01/2026
START_TIME            00:00:00
REPORT_START_DATE     01/01/2026
REPORT_START_TIME     00:00:00
END_DATE              01/01/2026
END_TIME              02:00:00
REPORT_STEP           00:00:10
ROUTING_STEP          0.5
ALLOW_PONDING         NO
INERTIAL_DAMPING      PARTIAL
NORMAL_FLOW_LIMITED   BOTH
SURCHARGE_METHOD      SLOT
MIN_SURFAREA          0.02
LENGTHENING_STEP      0

[JUNCTIONS]
;;Name Invert MaxDepth InitDepth SurDepth Aponded

[STORAGE]
;;Name Elev MaxDepth InitDepth Shape Coeff Expon Const SurDepth Fevap
A 37.568 4.379 0 FUNCTIONAL 0 0 0.8659 0 0
B 39.010 2.654 0 FUNCTIONAL 0 0 0.8659 0 0
J 37.434 4.491 0 FUNCTIONAL 0 0 0.8659 0 0
D 37.205 4.699 0 FUNCTIONAL 0 0 0.8659 0 0

[OUTFALLS]
;;Name Invert Type Gated
OUT 37.101 FREE NO

[CONDUITS]
;;Name From To Length N InOffset OutOffset InitFlow
A-J A J 40.460 0.013 37.5680 37.4340 0
B-J B J 91.014 0.013 39.0100 37.5100 0
J-D J D 57.656 0.013 37.4340 37.2420 0
D-out D OUT 30.944 0.013 37.2050 37.1010 0

[XSECTIONS]
;;Link Shape Geom1 Geom2 Geom3 Geom4 Barrels
A-J CIRCULAR 0.225 0 0 0 1
B-J CIRCULAR 0.150 0 0 0 1
J-D CIRCULAR 0.225 0 0 0 1
D-out CIRCULAR 0.225 0 0 0 1

[TIMESERIES]
;;Name Time(h) Value
Q0 0.00000 150.376728
Q0 2.00000 150.376728
Q1 0.00000 1.749918
Q1 2.00000 1.749918
Q2 0.00000 1.108543
Q2 2.00000 1.108543

[INFLOWS]
;;Node Constituent TimeSeries Type Mfactor Sfactor Baseline
A FLOW Q0 FLOW 1.0 1.0 0
B FLOW Q1 FLOW 1.0 1.0 0
J FLOW Q2 FLOW 1.0 1.0 0
